New structure                           
1.0
       15.5000581741         0.0000000000         0.0000000000
        7.7500281933        13.4234446549         0.0000000000
        7.7500281933         4.4744812076        12.6557451115
   Si
  128
Direct
     0.000000000         0.000000000         0.000000000
    -0.000000005        -0.000000009         0.500000016
    -0.000000004         0.500000003         0.000000000
    -0.000000018         0.500000012         0.500000016
     0.500000000         0.000000000         0.000000000
     0.499999979        -0.000000009         0.500000016
     0.499999981         0.500000003         0.000000000
     0.499999982         0.500000012         0.500000016
    -0.000000003        -0.000000004         0.250000008
    -0.000000005        -0.000000016         0.750000005
    -0.000000018         0.500000008         0.250000008
     0.000000007         0.499999987         0.750000005
     0.500000005        -0.000000004         0.250000008
     0.499999964        -0.000000016         0.750000005
     0.499999951         0.500000008         0.250000008
     0.500000038         0.499999987         0.750000005
    -0.000000002         0.250000002         0.000000000
    -0.000000006         0.249999975         0.500000016
     0.000000005         0.749999970         0.000000000
     0.000000006         0.749999978         0.500000016
     0.500000006         0.250000002         0.000000000
     0.500000025         0.249999975         0.500000016
     0.499999974         0.749999970         0.000000000
     0.499999914         0.749999978         0.500000016
    -0.000000009         0.250000006         0.250000008
     0.000000001         0.249999986         0.750000005
     0.000000023         0.749999939         0.250000008
    -0.000000000         0.749999954         0.750000005
     0.499999976         0.250000006         0.250000008
     0.500000001         0.249999986         0.750000005
     0.499999961         0.749999939         0.250000008
     0.499999969         0.749999954         0.750000005
     0.250000000         0.000000000         0.000000000
     0.249999995        -0.000000009         0.500000016
     0.249999996         0.500000003         0.000000000
     0.249999998         0.500000012         0.500000016
     0.750000015         0.000000000         0.000000000
     0.750000026        -0.000000009         0.500000016
     0.750000027         0.500000003         0.000000000
     0.750000028         0.500000012         0.500000016
     0.249999990        -0.000000004         0.250000008
     0.249999980        -0.000000016         0.750000005
     0.249999966         0.500000008         0.250000008
     0.249999992         0.499999987         0.750000005
     0.749999990        -0.000000004         0.250000008
     0.750000011        -0.000000016         0.750000005
     0.749999997         0.500000008         0.250000008
     0.750000084         0.499999987         0.750000005
     0.249999990         0.250000002         0.000000000
     0.249999979         0.249999975         0.500000016
     0.249999989         0.749999970         0.000000000
     0.249999990         0.749999978         0.500000016
     0.749999990         0.250000002         0.000000000
     0.750000010         0.249999975         0.500000016
     0.750000020         0.749999970         0.000000000
     0.749999960         0.749999978         0.500000016
     0.249999991         0.250000006         0.250000008
     0.249999955         0.249999986         0.750000005
     0.249999977         0.749999939         0.250000008
     0.249999984         0.749999954         0.750000005
     0.749999960         0.250000006         0.250000008
     0.750000047         0.249999986         0.750000005
     0.750000069         0.749999939         0.250000008
     0.750000015         0.749999954         0.750000005
     0.062499998         0.062500002         0.062500002
     0.062499984         0.062499973         0.562500022
     0.062500009         0.562500005         0.062500002
     0.062499996         0.562499977         0.562500022
     0.562499998         0.062500002         0.062500002
     0.562499954         0.062499973         0.562500022
     0.562499948         0.562500005         0.062500002
     0.562499904         0.562499977         0.562500022
     0.062499997         0.062500004         0.312500014
     0.062499991         0.062499984         0.812500011
     0.062500009         0.562500008         0.312500014
     0.062499955         0.562500023         0.812500011
     0.562499966         0.062500004         0.312500014
     0.562499991         0.062499984         0.812500011
     0.562499916         0.562500008         0.312500014
     0.562499924         0.562500023         0.812500011
     0.062499988         0.312500003         0.062500002
     0.062499973         0.312500010         0.562500022
     0.062500015         0.812500007         0.062500002
     0.062499989         0.812499943         0.562500022
     0.562499973         0.312500003         0.062500002
     0.562499973         0.312500010         0.562500022
     0.562499985         0.812500007         0.062500002
     0.562499958         0.812499943         0.562500022
     0.062499972         0.312500006         0.312500014
     0.062499997         0.312499986         0.812500011
     0.062500001         0.812499974         0.312500014
     0.062500009         0.812499989         0.812500011
     0.562499941         0.312500006         0.312500014
     0.562500028         0.312499986         0.812500011
     0.562500032         0.812499974         0.312500014
     0.562499978         0.812499989         0.812500011
     0.312500013         0.062500002         0.062500002
     0.312500031         0.062499973         0.562500022
     0.312500025         0.562500005         0.062500002
     0.312499981         0.562499977         0.562500022
     0.812500044         0.062500002         0.062500002
     0.812500000         0.062499973         0.562500022
     0.812499994         0.562500005         0.062500002
     0.812499950         0.562499977         0.562500022
     0.312499981         0.062500004         0.312500014
     0.312500007         0.062499984         0.812500011
     0.312499993         0.562500008         0.312500014
     0.312500001         0.562500023         0.812500011
     0.812500012         0.062500004         0.312500014
     0.812500038         0.062499984         0.812500011
     0.812500024         0.562500008         0.312500014
     0.812499970         0.562500023         0.812500011
     0.312499988         0.312500003         0.062500002
     0.312499926         0.312500010         0.562500022
     0.312500000         0.812500007         0.062500002
     0.312500035         0.812499943         0.562500022
     0.812500019         0.312500003         0.062500002
     0.812500019         0.312500010         0.562500022
     0.812500031         0.812500007         0.062500002
     0.812500004         0.812499943         0.562500022
     0.312499957         0.312500006         0.312500014
     0.312499982         0.312499986         0.812500011
     0.312499986         0.812499974         0.312500014
     0.312500055         0.812499989         0.812500011
     0.812499987         0.312500006         0.312500014
     0.812500074         0.312499986         0.812500011
     0.812500078         0.812499974         0.312500014
     0.812500024         0.812499989         0.812500011
