New structure                           
1.0
        7.7500290871         0.0000000000         0.0000000000
        3.8750140967         6.7117223275         0.0000000000
        3.8750140967         2.2372406038         6.3278725557
   Si
   16
Direct
     0.000000000         0.000000000         0.000000000
     0.000000000         0.000000000         0.500000000
     0.000000000         0.500000000         0.000000000
     0.000000000         0.500000000         0.500000000
     0.500000000         0.000000000         0.000000000
     0.500000000         0.000000000         0.500000000
     0.500000000         0.500000000         0.000000000
     0.500000000         0.500000000         0.500000000
     0.125000000         0.125000000         0.125000000
     0.125000000         0.125000000         0.625000000
     0.125000000         0.625000000         0.125000000
     0.125000000         0.625000000         0.625000000
     0.625000000         0.125000000         0.125000000
     0.625000000         0.125000000         0.625000000
     0.625000000         0.625000000         0.125000000
     0.625000000         0.625000000         0.625000000
