New structure                           
1.0
       11.6250438690         0.0000000000         0.0000000000
        5.8125212642        10.0675836977         0.0000000000
        5.8125212642         3.3558609746         9.4918090283
   Si
   54
Direct
     0.000000000         0.000000000         0.000000000
     0.000000000         0.000000000         0.333333343
     0.000000000         0.000000000         0.666666687
     0.000000000         0.333333343         0.000000000
     0.000000000         0.333333343         0.333333343
     0.000000000         0.333333343         0.666666687
     0.000000000         0.666666687         0.000000000
     0.000000000         0.666666687         0.333333343
     0.000000000         0.666666687         0.666666687
     0.333333343         0.000000000         0.000000000
     0.333333343         0.000000000         0.333333343
     0.333333343         0.000000000         0.666666687
     0.333333343         0.333333343         0.000000000
     0.333333343         0.333333343         0.333333343
     0.333333343         0.333333343         0.666666687
     0.333333343         0.666666687         0.000000000
     0.333333343         0.666666687         0.333333343
     0.333333343         0.666666687         0.666666687
     0.666666687         0.000000000         0.000000000
     0.666666687         0.000000000         0.333333343
     0.666666687         0.000000000         0.666666687
     0.666666687         0.333333343         0.000000000
     0.666666687         0.333333343         0.333333343
     0.666666687         0.333333343         0.666666687
     0.666666687         0.666666687         0.000000000
     0.666666687         0.666666687         0.333333343
     0.666666687         0.666666687         0.666666687
     0.083333336         0.083333336         0.083333336
     0.083333336         0.083333336         0.416666657
     0.083333336         0.083333336         0.750000000
     0.083333336         0.416666657         0.083333336
     0.083333336         0.416666657         0.416666657
     0.083333336         0.416666657         0.750000000
     0.083333336         0.750000000         0.083333336
     0.083333336         0.750000000         0.416666657
     0.083333336         0.750000000         0.750000000
     0.416666657         0.083333336         0.083333336
     0.416666657         0.083333336         0.416666657
     0.416666657         0.083333336         0.750000000
     0.416666657         0.416666657         0.083333336
     0.416666657         0.416666657         0.416666657
     0.416666657         0.416666657         0.750000000
     0.416666657         0.750000000         0.083333336
     0.416666657         0.750000000         0.416666657
     0.416666657         0.750000000         0.750000000
     0.750000000         0.083333336         0.083333336
     0.750000000         0.083333336         0.416666657
     0.750000000         0.083333336         0.750000000
     0.750000000         0.416666657         0.083333336
     0.750000000         0.416666657         0.416666657
     0.750000000         0.416666657         0.750000000
     0.750000000         0.750000000         0.083333336
     0.750000000         0.750000000         0.416666657
     0.750000000         0.750000000         0.750000000
