POSCAR                                  
1.0
        7.5420942307         0.0000000000         0.0000000000
        0.0000000000        13.0491533279         0.0000000000
        0.0000000000         0.0000000000        15.0000000000
    B    N
   18   18
Direct
     0.000000000         0.111068480         0.500000000
     0.000000000         0.444401801         0.500000000
     0.000000000         0.777735174         0.500000000
     0.333333343         0.111068480         0.500000000
     0.333333343         0.444401801         0.500000000
     0.333333343         0.777735174         0.500000000
     0.666666687         0.111068480         0.500000000
     0.666666687         0.444401801         0.500000000
     0.666666687         0.777735174         0.500000000
     0.166666672         0.277735144         0.500000000
     0.166666672         0.611068487         0.500000000
     0.166666672         0.944401801         0.500000000
     0.500000000         0.277735144         0.500000000
     0.500000000         0.611068487         0.500000000
     0.500000000         0.944401801         0.500000000
     0.833333313         0.277735144         0.500000000
     0.833333313         0.611068487         0.500000000
     0.833333313         0.944401801         0.500000000
     0.000000000         0.222264871         0.500000000
     0.000000000         0.555598199         0.500000000
     0.000000000         0.888931513         0.500000000
     0.333333343         0.222264871         0.500000000
     0.333333343         0.555598199         0.500000000
     0.333333343         0.888931513         0.500000000
     0.666666687         0.222264871         0.500000000
     0.666666687         0.555598199         0.500000000
     0.666666687         0.888931513         0.500000000
     0.166666672         0.055598188         0.500000000
     0.166666672         0.388931513         0.500000000
     0.166666672         0.722264826         0.500000000
     0.500000000         0.055598188         0.500000000
     0.500000000         0.388931513         0.500000000
     0.500000000         0.722264826         0.500000000
     0.833333313         0.055598188         0.500000000
     0.833333313         0.388931513         0.500000000
     0.833333313         0.722264826         0.500000000
