POSCAR                                  
1.0
        5.0280628204         0.0000000000         0.0000000000
        0.0000000000         8.6994352341         0.0000000000
        0.0000000000         0.0000000000        15.0000000000
    B    N
    8    8
Direct
     0.000000000         0.166602716         0.500000000   0 0
     0.000000000         0.666602731         0.500000000   0 0 0
     0.500000000         0.166602716         0.500000000
     0.500000000         0.666602731         0.500000000
     0.250000000         0.416602701         0.500000000
     0.250000000         0.916602731         0.500000000
     0.750000000         0.416602701         0.500000000
     0.750000000         0.916602731         0.500000000
     0.000000000         0.333397299         0.500000000
     0.000000000         0.833397269         0.500000000
     0.500000000         0.333397299         0.500000000
     0.500000000         0.833397269         0.500000000
     0.250000000         0.083397284         0.500000000
     0.250000000         0.583397269         0.500000000
     0.750000000         0.083397284         0.500000000
     0.750000000         0.583397269         0.500000000
