POSCAR
1.00000
30.5539989     0.0000000     0.0000000
 0.0000000    28.4972496     0.0000000
 0.0000000     0.0000000    10.0000000
B N n 
181 179 3 
Direct
0.038461540    0.119054689    0.500000000  0  0  0
0.115384624    0.119054689    0.500000000  0  0  0
0.192307696    0.119054689    0.500000000  0  0  0
0.269230784    0.119054689    0.500000000  0  0  0
0.346153856    0.119054689    0.500000002
0.423076928    0.119054689    0.500000008
0.500000000    0.119054689    0.500000013
0.576923103    0.119054689    0.500000008
0.653846175    0.119054689    0.500000002
0.730769248    0.119054689    0.500000000  0  0  0
0.807692320    0.119054689    0.500000000  0  0  0
0.884615392    0.119054689    0.500000000  0  0  0
0.961538464    0.119054689    0.500000000  0  0  0
0.038461540    0.261911839    0.500000000  0  0  0
0.115384624    0.261911839    0.500000000  0  0  0
0.192307696    0.261911839    0.500000024  0  0  0
0.269230784    0.261911839    0.500000859  0  0  0
0.346153856    0.261911839    0.500011093
0.423076928    0.261911839    0.500051492
0.500000000    0.261911839    0.500085896
0.576923103    0.261911839    0.500051492
0.653846175    0.261911839    0.500011093
0.730769248    0.261911839    0.500000859  0  0  0
0.807692320    0.261911839    0.500000024  0  0  0
0.884615392    0.261911839    0.500000000  0  0  0
0.961538464    0.261911839    0.500000000  0  0  0
0.038461540    0.404769006    0.500000000  0  0  0
0.115384624    0.404769006    0.500000048  0  0  0
0.192307696    0.404769006    0.500004761  0  0  0
0.269230784    0.404769006    0.500171141  0  0  0
0.346153856    0.404769006    0.502210709
0.423076928    0.404769006    0.510262138
0.500000000    0.404769006    0.517118796
0.576923103    0.404769006    0.510262133
0.653846175    0.404769006    0.502210708
0.730769248    0.404769006    0.500171141  0  0  0
0.807692320    0.404769006    0.500004761  0  0  0
0.884615392    0.404769006    0.500000048  0  0  0
0.961538464    0.404769006    0.500000000  0  0  0
0.038461540    0.547626139    0.500000001  0  0  0
0.115384624    0.547626139    0.500000278  0  0  0
0.192307696    0.547626139    0.500027812  0  0  0
0.269230784    0.547626139    0.500999727  0  0  0
0.346153856    0.547626139    0.512913930
0.423076928    0.547626139    0.559946606
0.576923103    0.547626139    0.559946582
0.653846175    0.547626139    0.512913919
0.730769248    0.547626139    0.500999726  0  0  0
0.807692320    0.547626139    0.500027812  0  0  0
0.884615392    0.547626139    0.500000278  0  0  0
0.961538464    0.547626139    0.500000001  0  0  0
0.038461540    0.690483272    0.500000000  0  0  0
0.115384624    0.690483272    0.500000048  0  0  0
0.192307696    0.690483272    0.500004762  0  0  0
0.269230784    0.690483272    0.500171174  0  0  0
0.346153856    0.690483272    0.502211131
0.423076928    0.690483272    0.510264096
0.500000000    0.690483272    0.517122063
0.576923103    0.690483272    0.510264092
0.653846175    0.690483272    0.502211129
0.730769248    0.690483272    0.500171174  0  0  0
0.807692320    0.690483272    0.500004762  0  0  0
0.884615392    0.690483272    0.500000048  0  0  0
0.961538464    0.690483272    0.500000000  0  0  0
0.038461540    0.833340406    0.500000000  0  0  0
0.115384624    0.833340406    0.500000000  0  0  0
0.192307696    0.833340406    0.500000024  0  0  0
0.269230784    0.833340406    0.500000859  0  0  0
0.346153856    0.833340406    0.500011097
0.423076928    0.833340406    0.500051512
0.500000000    0.833340406    0.500085929
0.576923103    0.833340406    0.500051512
0.653846175    0.833340406    0.500011097
0.730769248    0.833340406    0.500000859  0  0  0
0.807692320    0.833340406    0.500000024  0  0  0
0.884615392    0.833340406    0.500000000  0  0  0
0.961538464    0.833340406    0.500000000  0  0  0
0.038461540    0.976197539    0.500000000  0  0  0
0.115384624    0.976197539    0.500000000  0  0  0
0.192307696    0.976197539    0.500000000  0  0  0
0.269230784    0.976197539    0.500000000  0  0  0
0.346153856    0.976197539    0.500000002
0.423076928    0.976197539    0.500000008
0.500000000    0.976197539    0.500000013
0.576923103    0.976197539    0.500000008
0.653846175    0.976197539    0.500000002
0.730769248    0.976197539    0.500000000  0  0  0
0.807692320    0.976197539    0.500000000  0  0  0
0.884615392    0.976197539    0.500000000  0  0  0
0.961538464    0.976197539    0.500000000  0  0  0
0.000000000    0.047614129    0.500000000  0  0  0
0.076923080    0.047614129    0.500000000  0  0  0
0.153846160    0.047614129    0.500000000  0  0  0
0.230769232    0.047614129    0.500000000  0  0  0
0.307692320    0.047614129    0.500000000
0.384615392    0.047614129    0.500000000
0.461538464    0.047614129    0.500000000
0.538461567    0.047614129    0.500000000
0.615384639    0.047614129    0.500000000
0.692307712    0.047614129    0.500000000
0.769230784    0.047614129    0.500000000  0  0  0
0.846153856    0.047614129    0.500000000  0  0  0
0.923076928    0.047614129    0.500000000  0  0  0
0.000000000    0.190471275    0.500000000  0  0  0
0.076923080    0.190471275    0.500000000  0  0  0
0.153846160    0.190471275    0.500000000  0  0  0
0.230769232    0.190471275    0.500000003  0  0  0
0.307692320    0.190471275    0.500000066
0.384615392    0.190471275    0.500000512
0.461538464    0.190471275    0.500001424
0.538461567    0.190471275    0.500001424
0.615384639    0.190471275    0.500000512
0.692307712    0.190471275    0.500000066
0.769230784    0.190471275    0.500000003  0  0  0
0.846153856    0.190471275    0.500000000  0  0  0
0.923076928    0.190471275    0.500000000  0  0  0
0.000000000    0.333328425    0.500000000  0  0  0
0.076923080    0.333328425    0.500000000  0  0  0
0.153846160    0.333328425    0.500000060  0  0  0
0.230769232    0.333328425    0.500003571  0  0  0
0.307692320    0.333328425    0.500076945
0.384615392    0.333328425    0.500595831
0.461538464    0.333328425    0.501658035
0.538461567    0.333328425    0.501658034
0.615384639    0.333328425    0.500595830
0.692307712    0.333328425    0.500076945
0.769230784    0.333328425    0.500003571  0  0  0
0.846153856    0.333328425    0.500000060  0  0  0
0.923076928    0.333328425    0.500000000  0  0  0
0.000000000    0.476185558    0.500000000  0  0  0
0.076923080    0.476185558    0.500000012  0  0  0
0.153846160    0.476185558    0.500002032  0  0  0
0.230769232    0.476185558    0.500121874  0  0  0
0.307692320    0.476185558    0.502626166
0.384615392    0.476185558    0.520335921
0.461538464    0.476185558    0.556589340
0.538461567    0.476185558    0.556589328
0.615384639    0.476185558    0.520335908
0.692307712    0.476185558    0.502626164
0.769230784    0.476185558    0.500121873  0  0  0
0.846153856    0.476185558    0.500002032  0  0  0
0.923076928    0.476185558    0.500000012  0  0  0
-0.000000000    0.619042759    0.500000000  0  0  0
0.076923080    0.619042759    0.500000012  0  0  0
0.153846160    0.619042759    0.500002033  0  0  0
0.230769232    0.619042759    0.500121921  0  0  0
0.307692320    0.619042759    0.502627195
0.384615392    0.619042759    0.520343882
0.461538464    0.619042759    0.556611495
0.538461567    0.619042759    0.556611483
0.615384639    0.619042759    0.520343869
0.692307712    0.619042759    0.502627192
0.769230784    0.619042759    0.500121921  0  0  0
0.846153856    0.619042759    0.500002033  0  0  0
0.923076928    0.619042759    0.500000012  0  0  0
-0.000000000    0.761899825    0.500000000  0  0  0
0.076923080    0.761899825    0.500000000  0  0  0
0.153846160    0.761899825    0.500000060  0  0  0
0.230769232    0.761899825    0.500003575  0  0  0
0.307692320    0.761899825    0.500077036
0.384615392    0.761899825    0.500596532
0.461538464    0.761899825    0.501659987
0.538461567    0.761899825    0.501659987
0.615384639    0.761899825    0.500596532
0.692307712    0.761899825    0.500077036
0.769230784    0.761899825    0.500003575  0  0  0
0.846153856    0.761899825    0.500000060  0  0  0
0.923076928    0.761899825    0.500000000  0  0  0
-0.000000000    0.904757025    0.500000000  0  0  0
0.076923080    0.904757025    0.500000000  0  0  0
0.153846160    0.904757025    0.500000000  0  0  0
0.230769232    0.904757025    0.500000003  0  0  0
0.307692320    0.904757025    0.500000066
0.384615392    0.904757025    0.500000513
0.461538464    0.904757025    0.500001427
0.538461567    0.904757025    0.500001427
0.615384639    0.904757025    0.500000513
0.692307712    0.904757025    0.500000066
0.769230784    0.904757025    0.500000003  0  0  0
0.846153856    0.904757025    0.500000000  0  0  0
0.923076928    0.904757025    0.500000000  0  0  0
0.038461540    0.023818443    0.500000000  0  0  0
0.115384624    0.023818443    0.500000000  0  0  0
0.192307696    0.023818443    0.500000000  0  0  0
0.269230784    0.023818443    0.500000000  0  0  0
0.346153856    0.023818443    0.500000000
0.423076928    0.023818443    0.500000000
0.500000000    0.023818443    0.500000000
0.576923103    0.023818443    0.500000000
0.653846175    0.023818443    0.500000000
0.730769248    0.023818443    0.500000000  0  0  0
0.807692320    0.023818443    0.500000000  0  0  0
0.884615392    0.023818443    0.500000000  0  0  0
0.961538464    0.023818443    0.500000000  0  0  0
0.038461540    0.166675591    0.500000000  0  0  0
0.115384624    0.166675591    0.500000000  0  0  0
0.192307696    0.166675591    0.500000000  0  0  0
0.269230784    0.166675591    0.500000004  0  0  0
0.346153856    0.166675591    0.500000046
0.423076928    0.166675591    0.500000212
0.500000000    0.166675591    0.500000354
0.576923103    0.166675591    0.500000212
0.653846175    0.166675591    0.500000046
0.730769248    0.166675591    0.500000004  0  0  0
0.807692320    0.166675591    0.500000000  0  0  0
0.884615392    0.166675591    0.500000000  0  0  0
0.961538464    0.166675591    0.500000000  0  0  0
0.038461540    0.309532724    0.500000000  0  0  0
0.115384624    0.309532724    0.500000002  0  0  0
0.192307696    0.309532724    0.500000207  0  0  0
0.269230784    0.309532724    0.500007425  0  0  0
0.346153856    0.309532724    0.500095917
0.423076928    0.309532724    0.500445248
0.500000000    0.309532724    0.500742741
0.576923103    0.309532724    0.500445248
0.653846175    0.309532724    0.500095917
0.730769248    0.309532724    0.500007425  0  0  0
0.807692320    0.309532724    0.500000207  0  0  0
0.884615392    0.309532724    0.500000002  0  0  0
0.961538464    0.309532724    0.500000000  0  0  0
0.038461540    0.452389857    0.500000000  0  0  0
0.115384624    0.452389857    0.500000127  0  0  0
0.192307696    0.452389857    0.500012693  0  0  0
0.269230784    0.452389857    0.500456254  0  0  0
0.346153856    0.452389857    0.505893639
0.423076928    0.452389857    0.527358341
0.500000000    0.452389857    0.545637847
0.576923103    0.452389857    0.527358330
0.653846175    0.452389857    0.505893635
0.730769248    0.452389857    0.500456253  0  0  0
0.807692320    0.452389857    0.500012693  0  0  0
0.884615392    0.452389857    0.500000127  0  0  0
0.961538464    0.452389857    0.500000000  0  0  0
0.038461540    0.595247058    0.500000001  0  0  0
0.115384624    0.595247058    0.500000229  0  0  0
0.192307696    0.595247058    0.500022860  0  0  0
0.269230784    0.595247058    0.500821719  0  0  0
0.346153856    0.595247058    0.510614523
0.423076928    0.595247058    0.549272735
0.576923103    0.595247058    0.549272715
0.653846175    0.595247058    0.510614514
0.730769248    0.595247058    0.500821718  0  0  0
0.807692320    0.595247058    0.500022860  0  0  0
0.884615392    0.595247058    0.500000229  0  0  0
0.961538464    0.595247058    0.500000001  0  0  0
0.038461540    0.738104191    0.500000000  0  0  0
0.115384624    0.738104191    0.500000012  0  0  0
0.192307696    0.738104191    0.500001207  0  0  0
0.269230784    0.738104191    0.500043378  0  0  0
0.346153856    0.738104191    0.500560333
0.423076928    0.738104191    0.502601072
0.500000000    0.738104191    0.504338982
0.576923103    0.738104191    0.502601071
0.653846175    0.738104191    0.500560333
0.730769248    0.738104191    0.500043378  0  0  0
0.807692320    0.738104191    0.500001207  0  0  0
0.884615392    0.738104191    0.500000012  0  0  0
0.961538464    0.738104191    0.500000000  0  0  0
0.038461540    0.880961324    0.500000000  0  0  0
0.115384624    0.880961324    0.500000000  0  0  0
0.192307696    0.880961324    0.500000002  0  0  0
0.269230784    0.880961324    0.500000067  0  0  0
0.346153856    0.880961324    0.500000867
0.423076928    0.880961324    0.500004025
0.500000000    0.880961324    0.500006714
0.576923103    0.880961324    0.500004025
0.653846175    0.880961324    0.500000867
0.730769248    0.880961324    0.500000067  0  0  0
0.807692320    0.880961324    0.500000002  0  0  0
0.884615392    0.880961324    0.500000000  0  0  0
0.961538464    0.880961324    0.500000000  0  0  0
0.000000000    0.095227029    0.500000000  0  0  0
0.076923080    0.095227029    0.500000000  0  0  0
0.153846160    0.095227029    0.500000000  0  0  0
0.230769232    0.095227029    0.500000000  0  0  0
0.307692320    0.095227029    0.500000000
0.384615392    0.095227029    0.500000001
0.461538464    0.095227029    0.500000002
0.538461567    0.095227029    0.500000002
0.615384639    0.095227029    0.500000001
0.692307712    0.095227029    0.500000000
0.769230784    0.095227029    0.500000000  0  0  0
0.846153856    0.095227029    0.500000000  0  0  0
0.923076928    0.095227029    0.500000000  0  0  0
0.000000000    0.238084162    0.500000000  0  0  0
0.076923080    0.238084162    0.500000000  0  0  0
0.153846160    0.238084162    0.500000001  0  0  0
0.230769232    0.238084162    0.500000048  0  0  0
0.307692320    0.238084162    0.500001029
0.384615392    0.238084162    0.500007966
0.461538464    0.238084162    0.500022167
0.538461567    0.238084162    0.500022167
0.615384639    0.238084162    0.500007966
0.692307712    0.238084162    0.500001029
0.769230784    0.238084162    0.500000048  0  0  0
0.846153856    0.238084162    0.500000001  0  0  0
0.923076928    0.238084162    0.500000000  0  0  0
-0.000000000    0.380941345    0.500000000  0  0  0
0.076923080    0.380941345    0.500000002  0  0  0
0.153846160    0.380941345    0.500000286  0  0  0
0.230769232    0.380941345    0.500017142  0  0  0
0.307692320    0.380941345    0.500369387
0.384615392    0.380941345    0.502860377
0.461538464    0.380941345    0.507959651
0.538461567    0.380941345    0.507959649
0.615384639    0.380941345    0.502860375
0.692307712    0.380941345    0.500369387
0.769230784    0.380941345    0.500017142  0  0  0
0.846153856    0.380941345    0.500000286  0  0  0
0.923076928    0.380941345    0.500000002  0  0  0
-0.000000000    0.523798479    0.500000000  0  0  0
0.076923080    0.523798479    0.500000018  0  0  0
0.153846160    0.523798479    0.500003009  0  0  0
0.230769232    0.523798479    0.500180420  0  0  0
0.307692320    0.523798479    0.503887748
0.384615392    0.523798479    0.530105077
0.615384639    0.523798479    0.530105058
0.692307712    0.523798479    0.503887744
0.769230784    0.523798479    0.500180420  0  0  0
0.846153856    0.523798479    0.500003009  0  0  0
0.923076928    0.523798479    0.500000018  0  0  0
-0.000000000    0.666655578    0.500000000  0  0  0
0.076923080    0.666655578    0.500000006  0  0  0
0.153846160    0.666655578    0.500000928  0  0  0
0.230769232    0.666655578    0.500055659  0  0  0
0.307692320    0.666655578    0.501199345
0.384615392    0.666655578    0.509287223
0.461538464    0.666655578    0.525843818
0.538461567    0.666655578    0.525843813
0.615384639    0.666655578    0.509287217
0.692307712    0.666655578    0.501199344
0.769230784    0.666655578    0.500055658  0  0  0
0.846153856    0.666655578    0.500000928  0  0  0
0.923076928    0.666655578    0.500000006  0  0  0
0.000000000    0.809512712    0.500000000  0  0  0
0.076923080    0.809512712    0.500000000  0  0  0
0.153846160    0.809512712    0.500000008  0  0  0
0.230769232    0.809512712    0.500000503  0  0  0
0.307692320    0.809512712    0.500010845
0.384615392    0.809512712    0.500083977
0.461538464    0.809512712    0.500233686
0.538461567    0.809512712    0.500233686
0.615384639    0.809512712    0.500083977
0.692307712    0.809512712    0.500010845
0.769230784    0.809512712    0.500000503  0  0  0
0.846153856    0.809512712    0.500000008  0  0  0
0.923076928    0.809512712    0.500000000  0  0  0
0.000000000    0.952369845    0.500000000  0  0  0
0.076923080    0.952369845    0.500000000  0  0  0
0.153846160    0.952369845    0.500000000  0  0  0
0.230769232    0.952369845    0.500000000  0  0  0
0.307692320    0.952369845    0.500000003
0.384615392    0.952369845    0.500000022
0.461538464    0.952369845    0.500000062
0.538461567    0.952369845    0.500000062
0.615384639    0.952369845    0.500000022
0.692307712    0.952369845    0.500000003
0.769230784    0.952369845    0.500000000  0  0  0
0.846153856    0.952369845    0.500000000  0  0  0
0.923076928    0.952369845    0.500000000  0  0  0
0.538461567 0.523798479 0.583774229
0.461538464 0.523798479 0.583774246
0.500000000 0.595247058 0.582194369
