POSCAR  
1.0000000       
4.33   0.000000000   0.000000000
0.000000000   2.50  0.000000000
0.000000000   0.000000000   3.00
B  N  
2  2  
Direct 
0.833333000   0.500000000   0.50000000
0.333333000   0.000000000   0.50000000
0.166667000   0.500000000   0.50000000
0.666667000   0.000000000   0.50000000