New structure
1.0
        9.0138998032         0.0000000000         0.0000000000
        0.0000000000         6.9281997681         0.0000000000
       -1.9066287578         0.0000000000         6.3631935901
    Y   Si    O
    8    4   20
Direct
     0.119799998         0.139599990         0.426799998
     0.880200003         0.860400036         0.573199989
     0.880200047         0.639599964         0.073199986
     0.119800012         0.360400036         0.926800030
     0.522499975         0.627300012         0.233999985
     0.477499994         0.372699988         0.766000040
     0.477500006         0.127300021         0.266000008
     0.522499974         0.872699988         0.733999942
     0.199399986         0.592400021         0.479999970
     0.800599967         0.407599979         0.519999980
     0.800599965         0.092400073         0.020000010
     0.199399996         0.907599979         0.980000039
     0.198999992         0.414999999         0.648999991
     0.801000009         0.585000036         0.350999997
     0.801000016         0.914999964         0.850999991
     0.198999997         0.085000010         0.148999931
     0.123000007         0.486999989         0.246999997
     0.876999998         0.513000011         0.753000009
     0.876999991         0.986999955         0.253000015
     0.122999997         0.013000012         0.746999972
     0.372000024         0.643999981         0.504000006
     0.628000043         0.356000019         0.495999982
     0.628000058         0.144000050         0.996000013
     0.372000003         0.856000019         0.003999948
     0.090000003         0.776999988         0.456999965
     0.909999936         0.222999995         0.542999985
     0.909999881         0.276999953         0.043000010
     0.090000005         0.723000012         0.956999997
     0.377999992         0.375000000         0.037000001
     0.621999990         0.625000000         0.962999959
     0.621999991         0.875000000         0.463000002
     0.377999970         0.125000000         0.536999985
