Ca4 O4
1.0
4.810000 0.000000 0.000000
0.000000 4.810000 0.000000
0.000000 0.000000 4.810000
Ca O
4 4
direct
0.000000 0.000000 0.000000 Ca
0.000000 0.500000 0.500000 Ca
0.500000 0.000000 0.500000 Ca
0.500000 0.500000 0.000000 Ca
0.000000 0.500000 0.000000 O
0.000000 0.000000 0.500000 O
0.500000 0.500000 0.500000 O
0.500000 0.000000 0.000000 O

https://journals.aps.org/prb/pdf/10.1103/PhysRevB.54.13529