Autosave
1.0
        2.5220999718         0.0000000000         0.0000000000
        0.0000000000         4.3684000969         0.0000000000
        0.0000000000         0.0000000000         6.1778998375
    C
   12
Direct
     0.000000000         0.000000000         0.000000000
     0.500000000         0.500000000         0.000000000
     0.000000000         0.333330004         0.666670063
     0.500000000         0.833329949         0.666670063
    -0.000000000         0.666670051         0.333330014
     0.500000000         0.166669996         0.333330014
     0.000000000         0.000000000         0.250000000
     0.500000000         0.500000000         0.250000000
     0.000000000         0.333330004         0.916670005
     0.500000000         0.833329949         0.916670005
     0.000000000         0.666670051         0.583329957
     0.500000000         0.166669996         0.583329957
