Mg4 O4
1.0
4.212000 0.000000 0.000000
0.000000 4.212000 0.000000
0.000000 0.000000 4.212000
Mg O
4 4
direct
0.000000 0.000000 0.000000 Mg
0.000000 0.500000 0.500000 Mg
0.500000 0.000000 0.500000 Mg
0.500000 0.500000 0.000000 Mg
0.000000 0.500000 0.000000 O
0.000000 0.000000 0.500000 O
0.500000 0.500000 0.500000 O
0.500000 0.000000 0.000000 O

PHYSICAL REVIEW B 66, 085419 (2002) --ref : 16