MoS2 bulk 2H Phase
1.0
        3.1610000134         0.0000000000         0.0000000000
       -1.5805000067         2.7375063129         0.0000000000
        0.0000000000         0.0000000000        12.2950000763
   Mo    S
    2    4
Direct
     0.333333357         0.666666714         0.250000000
     0.666666619         0.333333314         0.750000039
     0.333333357         0.666666714         0.623000018
     0.666666619         0.333333314         0.376999982
     0.666666619         0.333333314         0.123000028
     0.333333357         0.666666714         0.876999982
