Zn2 O2
1.0
3.2501   0.000000 0.000000
-1.62505 2.814669 0.000000
0.000000 0.000000 5.2071
Zn O
2 2
direct
0.666667 0.333333 0.5000 Zn
0.333333 0.666667 0.0000 Zn
0.666667 0.333333 0.8817 O
0.333333 0.666667 0.3817 O
