X1-Y2SiO5 [010]
1.0
        9.0138998032         0.0000000000         0.0000000000
        1.9066287578         6.3631935901         0.0000000000
        0.0000000000         0.0000000000         6.9281997681
    Y   Si    O
    8    4   20
Direct
     0.119799997         0.573199989         0.139599990
     0.880199989         0.426799998         0.860400036
     0.880200027         0.926800030         0.639599964
     0.119800006         0.073199986         0.360400036
     0.522500006         0.766000040         0.627300012
     0.477500029         0.233999967         0.372699988
     0.477500026         0.733999942         0.127300021
     0.522499964         0.266000027         0.872699988
     0.199399999         0.520000018         0.592400021
     0.800600006         0.480000008         0.407599979
     0.800599938         0.980000039         0.092400073
     0.199399988         0.019999982         0.907599979
     0.198999991         0.350999997         0.414999999
     0.800999995         0.648999991         0.585000036
     0.801000004         0.148999988         0.914999964
     0.198999995         0.851000066         0.085000010
     0.123000002         0.753000009         0.486999989
     0.876999984         0.246999978         0.513000011
     0.877000030         0.746999972         0.986999955
     0.123000009         0.253000015         0.013000013
     0.372000063         0.495999982         0.643999981
     0.628000029         0.504000006         0.356000019
     0.628000090         0.004000008         0.144000050
     0.372000048         0.996000013         0.856000019
     0.090000016         0.543000022         0.776999988
     0.909999923         0.457000003         0.222999995
     0.909999968         0.956999997         0.276999953
     0.090000006         0.042999982         0.723000012
     0.378000010         0.962999959         0.375000000
     0.621999970         0.037000059         0.625000000
     0.621999977         0.536999985         0.875000000
     0.377999956         0.463000002         0.125000000
