1T-MoS2
1.0
        3.1600000858         0.0000000000         0.0000000000
       -1.5799999237         2.7366401438         0.0000000000
        0.0000000000         0.0000000000         6.1500000954
   Mo    S
    1    2
Direct
     0.500000006         0.500000013         0.500000000
     0.833299996         0.166700013         0.250000000
     0.166700019         0.833329972         0.750000019
