Autosave
1.0
        3.840083         0.0000000000         0.0000000000
        0.0000000000         6.651211         0.0000000000
        0.0000000000         0.0000000000         9.406308
    Si
   12
Direct
     0.000000000         0.000000000         0.000000000
     0.500000000         0.500000000         0.000000000
     0.000000000         0.333330004         0.666670063
     0.500000000         0.833329949         0.666670063
    -0.000000000         0.666670051         0.333330014
     0.500000000         0.166669996         0.333330014
     0.000000000         0.000000000         0.250000000
     0.500000000         0.500000000         0.250000000
     0.000000000         0.333330004         0.916670005
     0.500000000         0.833329949         0.916670005
     0.000000000         0.666670051         0.583329957
     0.500000000         0.166669996         0.583329957
