New structure
1.0
       14.1883001328         0.0000000000         0.0000000000
        0.0000000000         6.6223998070         0.0000000000
       -8.7229881796         0.0000000000         8.6774357259
    Y   Si    O
   16    8   40
Direct
     0.556999983         0.619899988         0.167799992
     0.443000023         0.380100012         0.832200012
     0.443000015         0.619899988         0.332200003
     0.556999999         0.380100012         0.667800014
     0.056999920         0.119899988         0.167799992
     0.943000023         0.880100048         0.832200012
     0.943000015         0.119899988         0.332200003
     0.056999931         0.880100048         0.667800014
     0.824299971         0.494800002         0.038100000
     0.175700045         0.505200034         0.961900020
     0.175700021         0.494800002         0.461900012
     0.824299976         0.505200034         0.538100006
     0.324300038         0.994799966         0.038100000
     0.675700012         0.005199998         0.961900020
     0.675700005         0.994799966         0.461900012
     0.324300043         0.005199998         0.538100006
     0.621499985         0.160699992         0.189899998
     0.378499979         0.839300026         0.810100046
     0.378499989         0.160699992         0.310100038
     0.621500009         0.839300026         0.689899979
     0.121500019         0.660699938         0.189899998
     0.878499979         0.339299990         0.810100046
     0.878499972         0.660699938         0.310100038
     0.121500042         0.339299990         0.689899979
     0.720299962         0.106600000         0.173400005
     0.279699993         0.893399991         0.826600026
     0.279699986         0.106600000         0.326600017
     0.720299995         0.893399991         0.673400000
     0.220299962         0.606599973         0.173400005
     0.779699993         0.393400027         0.826600026
     0.779700020         0.606599973         0.326600017
     0.220299961         0.393400027         0.673400000
     0.692700030         0.258800002         0.354700015
     0.307299984         0.741199980         0.645300057
     0.307299952         0.258800002         0.145300007
     0.692700004         0.741199980         0.854699969
     0.192700030         0.758800056         0.354700015
     0.807299984         0.241199998         0.645300057
     0.807299952         0.758800056         0.145300007
     0.192700037         0.241199998         0.854699969
     0.948499965         0.459199979         0.326799985
     0.051500015         0.540799985         0.673200032
     0.051500016         0.459199979         0.173200010
     0.948500006         0.540799985         0.826799994
     0.448499915         0.959200051         0.326799985
     0.551500015         0.040800003         0.673200032
     0.551500000         0.959200051         0.173200010
     0.448499939         0.040800003         0.826799994
     0.495000000         0.314700005         0.444700007
     0.504999998         0.685299995         0.555300011
     0.504999989         0.314700005         0.055299999
     0.494999990         0.685299995         0.944700015
     0.995000016         0.814700041         0.444700007
     0.004999998         0.185299995         0.555300011
     0.004999997         0.814700041         0.055299999
     0.995000023         0.185299995         0.944700015
     0.130700042         0.846800002         0.899500024
     0.869299968         0.153199962         0.100499987
     0.869299980         0.846800002         0.600500002
     0.130700001         0.153199962         0.399500015
     0.630700008         0.346800074         0.899500024
     0.369300002         0.653199962         0.100499987
     0.369300013         0.346800074         0.600500002
     0.630700001         0.653199962         0.399500015
