POSCAR
1.00000
30.5539989     0.0000000     0.0000000
 0.0000000    28.4972496     0.0000000
 0.0000000     0.0000000    10.0000000
B N VB 
181 182 1 
Direct
0.038461540    0.119054689    0.500018848  0  0  0
0.115384624    0.119054689    0.500076985
0.192307696    0.119054689    0.500243464
0.269230784    0.119054689    0.500596138
0.346153856    0.119054689    0.501130163
0.423076928    0.119054689    0.501658890
0.500000000    0.119054689    0.501885283
0.576923103    0.119054689    0.501658890
0.653846175    0.119054689    0.501130163
0.730769248    0.119054689    0.500596138
0.807692320    0.119054689    0.500243464
0.884615392    0.119054689    0.500076985
0.961538464    0.119054689    0.500018848  0  0  0
0.038461540    0.261911839    0.500171149  0  0  0
0.115384624    0.261911839    0.500699073
0.192307696    0.261911839    0.502210813
0.269230784    0.261911839    0.505413325
0.346153856    0.261911839    0.510262623
0.423076928    0.261911839    0.515063813
0.500000000    0.261911839    0.517119606
0.576923103    0.261911839    0.515063811
0.653846175    0.261911839    0.510262621
0.730769248    0.261911839    0.505413324
0.807692320    0.261911839    0.502210813
0.884615392    0.261911839    0.500699073
0.961538464    0.261911839    0.500171149  0  0  0
0.038461540    0.404769006    0.500643057  0  0  0
0.115384624    0.404769006    0.502626618
0.192307696    0.404769006    0.508306664
0.269230784    0.404769006    0.520339425
0.346153856    0.404769006    0.538559635
0.423076928    0.404769006    0.556599091
0.500000000    0.404769006    0.564323299
0.576923103    0.404769006    0.556599085
0.653846175    0.404769006    0.538559627
0.730769248    0.404769006    0.520339418
0.807692320    0.404769006    0.508306662
0.884615392    0.404769006    0.502626618
0.961538464    0.404769006    0.500643057  0  0  0
0.038461540    0.547626139    0.500999726  0  0  0
0.115384624    0.547626139    0.504083463
0.192307696    0.547626139    0.512913927
0.269230784    0.547626139    0.531620618
0.346153856    0.547626139    0.559946607
0.423076928    0.547626139    0.587991587
0.576923103    0.547626139    0.587991578
0.653846175    0.547626139    0.559946594
0.730769248    0.547626139    0.531620608
0.807692320    0.547626139    0.512913924
0.884615392    0.547626139    0.504083462
0.961538464    0.547626139    0.500999726  0  0  0
0.038461540    0.690483272    0.500643088  0  0  0
0.115384624    0.690483272    0.502626744
0.192307696    0.690483272    0.508307060
0.269230784    0.690483272    0.520340395
0.346153856    0.690483272    0.538561474
0.423076928    0.690483272    0.556601791
0.500000000    0.690483272    0.564326367
0.576923103    0.690483272    0.556601785
0.653846175    0.690483272    0.538561466
0.730769248    0.690483272    0.520340388
0.807692320    0.690483272    0.508307058
0.884615392    0.690483272    0.502626743
0.961538464    0.690483272    0.500643088  0  0  0
0.038461540    0.833340406    0.500171166  0  0  0
0.115384624    0.833340406    0.500699140
0.192307696    0.833340406    0.502211025
0.269230784    0.833340406    0.505413844
0.346153856    0.833340406    0.510263606
0.423076928    0.833340406    0.515065256
0.500000000    0.833340406    0.517121246
0.576923103    0.833340406    0.515065255
0.653846175    0.833340406    0.510263604
0.730769248    0.833340406    0.505413842
0.807692320    0.833340406    0.502211025
0.884615392    0.833340406    0.500699140
0.961538464    0.833340406    0.500171166  0  0  0
0.038461540    0.976197539    0.500018850  0  0  0
0.115384624    0.976197539    0.500076996
0.192307696    0.976197539    0.500243499
0.269230784    0.976197539    0.500596224
0.346153856    0.976197539    0.501130326
0.423076928    0.976197539    0.501659129
0.500000000    0.976197539    0.501885554
0.576923103    0.976197539    0.501659129
0.653846175    0.976197539    0.501130326
0.730769248    0.976197539    0.500596224
0.807692320    0.976197539    0.500243499
0.884615392    0.976197539    0.500076996
0.961538464    0.976197539    0.500018850  0  0  0
0.000000000    0.047614129    0.500002019  0  0  0
0.076923080    0.047614129    0.500009372
0.153846160    0.047614129    0.500033684
0.230769232    0.047614129    0.500093733
0.307692320    0.047614129    0.500201951
0.384615392    0.047614129    0.500336885
0.461538464    0.047614129    0.500435111
0.538461567    0.047614129    0.500435111
0.615384639    0.047614129    0.500336885
0.692307712    0.047614129    0.500201951
0.769230784    0.047614129    0.500093733
0.846153856    0.047614129    0.500033684
0.923076928    0.047614129    0.500009372
0.000000000    0.190471275    0.500028504  0  0  0
0.076923080    0.190471275    0.500132314
0.153846160    0.190471275    0.500475547
0.230769232    0.190471275    0.501323318
0.307692320    0.190471275    0.502851132
0.384615392    0.190471275    0.504756118
0.461538464    0.190471275    0.506142856
0.538461567    0.190471275    0.506142856
0.615384639    0.190471275    0.504756118
0.692307712    0.190471275    0.502851131
0.769230784    0.190471275    0.501323317
0.846153856    0.190471275    0.500475547
0.923076928    0.190471275    0.500132314
0.000000000    0.333328425    0.500166505  0  0  0
0.076923080    0.333328425    0.500772917
0.153846160    0.333328425    0.502777930
0.230769232    0.333328425    0.507730225
0.307692320    0.333328425    0.516655026
0.384615392    0.333328425    0.527783100
0.461538464    0.333328425    0.535883798
0.538461567    0.333328425    0.535883796
0.615384639    0.333328425    0.527783096
0.692307712    0.333328425    0.516655021
0.769230784    0.333328425    0.507730223
0.846153856    0.333328425    0.502777929
0.923076928    0.333328425    0.500772917
0.000000000    0.476185558    0.500402450  0  0  0
0.076923080    0.476185558    0.501868177
0.153846160    0.476185558    0.506714390
0.230769232    0.476185558    0.518684324
0.307692320    0.476185558    0.540255995
0.384615392    0.476185558    0.567153083
0.461538464    0.476185558    0.586732858
0.538461567    0.476185558    0.586732853
0.615384639    0.476185558    0.567153073
0.692307712    0.476185558    0.540255984
0.769230784    0.476185558    0.518684320
0.846153856    0.476185558    0.506714389
0.923076928    0.476185558    0.501868177
-0.000000000    0.619042759    0.500402489  0  0  0
0.076923080    0.619042759    0.501868360
0.153846160    0.619042759    0.506715047
0.230769232    0.619042759    0.518686152
0.307692320    0.619042759    0.540259934
0.384615392    0.619042759    0.567159655
0.461538464    0.619042759    0.586741346
0.538461567    0.619042759    0.586741341
0.615384639    0.619042759    0.567159645
0.692307712    0.619042759    0.540259923
0.769230784    0.619042759    0.518686149
0.846153856    0.619042759    0.506715046
0.923076928    0.619042759    0.501868359
-0.000000000    0.761899825    0.500166554  0  0  0
0.076923080    0.761899825    0.500773144
0.153846160    0.761899825    0.502778747
0.230769232    0.761899825    0.507732499
0.307692320    0.761899825    0.516659926
0.384615392    0.761899825    0.527791274
0.461538464    0.761899825    0.535894356
0.538461567    0.761899825    0.535894354
0.615384639    0.761899825    0.527791270
0.692307712    0.761899825    0.516659922
0.769230784    0.761899825    0.507732498
0.846153856    0.761899825    0.502778747
0.923076928    0.761899825    0.500773144
-0.000000000    0.904757025    0.500028517  0  0  0
0.076923080    0.904757025    0.500132378
0.153846160    0.904757025    0.500475780
0.230769232    0.904757025    0.501323966
0.307692320    0.904757025    0.502852528
0.384615392    0.904757025    0.504758447
0.461538464    0.904757025    0.506145864
0.538461567    0.904757025    0.506145864
0.615384639    0.904757025    0.504758447
0.692307712    0.904757025    0.502852527
0.769230784    0.904757025    0.501323965
0.846153856    0.904757025    0.500475780
0.923076928    0.904757025    0.500132378
0.038461540    0.023818443    0.500002652  0  0  0
0.115384624    0.023818443    0.500010833
0.192307696    0.023818443    0.500034261
0.269230784    0.023818443    0.500083890
0.346153856    0.023818443    0.500159038
0.423076928    0.023818443    0.500233442
0.500000000    0.023818443    0.500265300
0.576923103    0.023818443    0.500233442
0.653846175    0.023818443    0.500159038
0.730769248    0.023818443    0.500083889
0.807692320    0.023818443    0.500034261
0.884615392    0.023818443    0.500010833
0.961538464    0.023818443    0.500002652  0  0  0
0.038461540    0.166675591    0.500043374  0  0  0
0.115384624    0.166675591    0.500177163
0.192307696    0.166675591    0.500560277
0.269230784    0.166675591    0.501371877
0.346153856    0.166675591    0.502600814
0.423076928    0.166675591    0.503817560
0.500000000    0.166675591    0.504338551
0.576923103    0.166675591    0.503817559
0.653846175    0.166675591    0.502600814
0.730769248    0.166675591    0.501371876
0.807692320    0.166675591    0.500560277
0.884615392    0.166675591    0.500177163
0.961538464    0.166675591    0.500043374  0  0  0
0.038461540    0.309532724    0.500293488  0  0  0
0.115384624    0.309532724    0.501198776
0.192307696    0.309532724    0.503791121
0.269230784    0.309532724    0.509282815
0.346153856    0.309532724    0.517598430
0.423076928    0.309532724    0.525831551
0.500000000    0.309532724    0.529356842
0.576923103    0.309532724    0.525831548
0.653846175    0.309532724    0.517598427
0.730769248    0.309532724    0.509282812
0.807692320    0.309532724    0.503791120
0.884615392    0.309532724    0.501198776
0.961538464    0.309532724    0.500293488  0  0  0
0.038461540    0.452389857    0.500821698  0  0  0
0.115384624    0.452389857    0.503356294
0.192307696    0.452389857    0.510614257
0.269230784    0.452389857    0.525989723
0.346153856    0.452389857    0.549271512
0.423076928    0.452389857    0.572322335
0.500000000    0.452389857    0.582192329
0.576923103    0.452389857    0.572322328
0.653846175    0.452389857    0.549271502
0.730769248    0.452389857    0.525989714
0.807692320    0.452389857    0.510614255
0.884615392    0.452389857    0.503356293
0.961538464    0.452389857    0.500821698  0  0  0
0.038461540    0.595247058    0.500951901  0  0  0
0.115384624    0.595247058    0.503888116
0.192307696    0.595247058    0.512296141
0.269230784    0.595247058    0.530107928
0.346153856    0.595247058    0.557078838
0.423076928    0.595247058    0.583782182
0.500000000    0.595247058    0.595216128
0.576923103    0.595247058    0.583782174
0.653846175    0.595247058    0.557078826
0.730769248    0.595247058    0.530107919
0.807692320    0.595247058    0.512296139
0.884615392    0.595247058    0.503888115
0.961538464    0.595247058    0.500951901  0  0  0
0.038461540    0.738104191    0.500456277  0  0  0
0.115384624    0.738104191    0.501863698
0.192307696    0.738104191    0.505893934
0.269230784    0.738104191    0.514431694
0.346153856    0.738104191    0.527359714
0.423076928    0.738104191    0.540159482
0.500000000    0.738104191    0.545640139
0.576923103    0.738104191    0.540159478
0.653846175    0.738104191    0.527359709
0.730769248    0.738104191    0.514431689
0.807692320    0.738104191    0.505893933
0.884615392    0.738104191    0.501863698
0.961538464    0.738104191    0.500456277  0  0  0
0.038461540    0.880961324    0.500090494  0  0  0
0.115384624    0.880961324    0.500369632
0.192307696    0.880961324    0.501168958
0.269230784    0.880961324    0.502862273
0.346153856    0.880961324    0.505426319
0.423076928    0.880961324    0.507964928
0.500000000    0.880961324    0.509051920
0.576923103    0.880961324    0.507964928
0.653846175    0.880961324    0.505426318
0.730769248    0.880961324    0.502862272
0.807692320    0.880961324    0.501168958
0.884615392    0.880961324    0.500369632
0.961538464    0.880961324    0.500090494  0  0  0
0.000000000    0.095227029    0.500005382  0  0  0
0.076923080    0.095227029    0.500024982
0.153846160    0.095227029    0.500089786
0.230769232    0.095227029    0.500249851
0.307692320    0.095227029    0.500538312
0.384615392    0.095227029    0.500897985
0.461538464    0.095227029    0.501159810
0.538461567    0.095227029    0.501159810
0.615384639    0.095227029    0.500897985
0.692307712    0.095227029    0.500538311
0.769230784    0.095227029    0.500249851
0.846153856    0.095227029    0.500089786
0.923076928    0.095227029    0.500024982
0.000000000    0.238084162    0.500056618  0  0  0
0.076923080    0.238084162    0.500262821
0.153846160    0.238084162    0.500944603
0.230769232    0.238084162    0.502628574
0.307692320    0.238084162    0.505663349
0.384615392    0.238084162    0.509447322
0.461538464    0.238084162    0.512201870
0.538461567    0.238084162    0.512201870
0.615384639    0.238084162    0.509447320
0.692307712    0.238084162    0.505663347
0.769230784    0.238084162    0.502628573
0.846153856    0.238084162    0.500944603
0.923076928    0.238084162    0.500262821
-0.000000000    0.380941345    0.500246463  0  0  0
0.076923080    0.380941345    0.501144084
0.153846160    0.380941345    0.504111937
0.230769232    0.380941345    0.511442403
0.307692320    0.380941345    0.524653036
0.384615392    0.380941345    0.541124990
0.461538464    0.380941345    0.553115772
0.538461567    0.380941345    0.553115769
0.615384639    0.380941345    0.541124983
0.692307712    0.380941345    0.524653029
0.769230784    0.380941345    0.511442401
0.846153856    0.380941345    0.504111936
0.923076928    0.380941345    0.501144084
-0.000000000    0.523798479    0.500443921  0  0  0
0.076923080    0.523798479    0.502060687
0.153846160    0.523798479    0.507406287
0.230769232    0.523798479    0.520609685
0.307692320    0.523798479    0.544404250
0.384615392    0.523798479    0.574073000
0.461538464    0.523798479    0.595670409
0.538461567    0.523798479    0.595670404
0.615384639    0.523798479    0.574072989
0.692307712    0.523798479    0.544404238
0.769230784    0.523798479    0.520609682
0.846153856    0.523798479    0.507406285
0.923076928    0.523798479    0.502060686
-0.000000000    0.666655578    0.500330839  0  0  0
0.076923080    0.666655578    0.501535761
0.153846160    0.666655578    0.505519657
0.230769232    0.666655578    0.515359706
0.307692320    0.666655578    0.533092995
0.384615392    0.666655578    0.555204117
0.461538464    0.666655578    0.571299941
0.538461567    0.666655578    0.571299937
0.615384639    0.666655578    0.555204109
0.692307712    0.666655578    0.533092986
0.769230784    0.666655578    0.515359703
0.846153856    0.666655578    0.505519656
0.923076928    0.666655578    0.501535760
0.000000000    0.809512712    0.500102020  0  0  0
0.076923080    0.809512712    0.500473579
0.153846160    0.809512712    0.501702084
0.230769232    0.809512712    0.504736437
0.307692320    0.809512712    0.510204811
0.384615392    0.809512712    0.517023166
0.461538464    0.809512712    0.521986598
0.538461567    0.809512712    0.521986597
0.615384639    0.809512712    0.517023164
0.692307712    0.809512712    0.510204808
0.769230784    0.809512712    0.504736436
0.846153856    0.809512712    0.501702083
0.923076928    0.809512712    0.500473579
0.000000000    0.952369845    0.500013017  0  0  0
0.076923080    0.952369845    0.500060425
0.153846160    0.952369845    0.500217174
0.230769232    0.952369845    0.500604335
0.307692320    0.952369845    0.501302060
0.384615392    0.952369845    0.502172034
0.461538464    0.952369845    0.502805332
0.538461567    0.952369845    0.502805332
0.615384639    0.952369845    0.502172033
0.692307712    0.952369845    0.501302060
0.769230784    0.952369845    0.500604335
0.846153856    0.952369845    0.500217174
0.923076928    0.952369845    0.500060425
0.500000000 0.547626139 0.600000000
