&CONTROL
calculation = 'scf'
restart_mode = 'from_scratch'
prefix = 'h-BN'
pseudo_dir = '/home/dlwodnr95/PSEUDOPOTENTIALS'
outdir = './out/'
wf_collect = .TRUE.
tprnfor = .TRUE.
tstress = .TRUE.
verbosity = 'high'
nstep = 80
/
&SYSTEM
ibrav = 0
nat = 335
ntyp = 3
ecutwfc = 85
nosym = .TRUE.
occupations = 'fixed'
nbnd = 800
nspin = 2
tot_charge = -1.0
tot_magnetization = 2.0
/
&ELECTRONS
electron_maxstep = 600
conv_thr = 1.0d-7
mixing_mode = 'plain'
mixing_beta = 0.7
diagonalization = 'david'
startingpot = 'atomic'
startingwfc = 'atomic+random'
/
K_POINTS automatic
1 1 1 0 0 0
ATOMIC_SPECIES
B   10.8110  B.pbesol-n-kjpaw_psl.0.1.UPF
N   14.5341  N.pbesol-n-kjpaw_psl.0.1.UPF
n   14.5341  N.pbesol-n-kjpaw_psl.0.1.UPF
CELL_PARAMETERS (angstrom)
30.0387840    0.0000000    0.0000000
0.0000000    30.3518620    0.0000000
0.0000000    0.0000000    9.9995365
ATOMIC_POSITIONS (crystal)
B        0.041666667         0.119045431         0.500000000
B        0.125000000         0.119045431         0.500000000
B        0.208333349         0.119045431         0.500000000
B        0.291666651         0.119045431         0.500000000
B        0.374999984         0.119045431         0.500000000
B        0.458333317         0.119045431         0.500000000
B        0.541666714         0.119045431         0.500000000
B        0.625000016         0.119045431         0.500000000
B        0.708333381         0.119045431         0.500000000
B        0.791666683         0.119045431         0.500000000
B        0.874999984         0.119045431         0.500000000
B        0.958333349         0.119045431         0.500000000
B        0.041666667         0.261902571         0.500000000
B        0.125000000         0.261902571         0.500000000
B        0.208333349         0.261902571         0.500000000
B        0.291666651         0.261902571         0.500000000
B        0.374999984         0.261902571         0.500000000
B        0.458333317         0.261902571         0.500000000
B        0.541666714         0.261902571         0.500000000
B        0.625000016         0.261902571         0.500000000
B        0.708333381         0.261902571         0.500000000
B        0.791666683         0.261902571         0.500000000
B        0.874999984         0.261902571         0.500000000
B        0.958333349         0.261902571         0.500000000
B        0.041666667         0.404759734         0.500000000
B        0.125000000         0.404759734         0.500000000
B        0.208333349         0.404759734         0.500000000
B        0.291666651         0.404759734         0.500000000
B        0.374999984         0.404759734         0.500000000
B        0.458333317         0.404759734         0.500000000
B        0.541666714         0.404759734         0.500000000
B        0.625000016         0.404759734         0.500000000
B        0.708333381         0.404759734         0.500000000
B        0.791666683         0.404759734         0.500000000
B        0.874999984         0.404759734         0.500000000
B        0.958333349         0.404759734         0.500000000
B        0.041666667         0.547616850         0.500000000
B        0.125000000         0.547616850         0.500000000
B        0.208333349         0.547616850         0.500000000
B        0.291666651         0.547616850         0.500000000
B        0.374999984         0.547616850         0.500000000
B        0.458333317         0.547616850         0.500000000
B        0.541666714         0.547616850         0.500000000
B        0.625000016         0.547616850         0.500000000
B        0.708333381         0.547616850         0.500000000
B        0.791666683         0.547616850         0.500000000
B        0.874999984         0.547616850         0.500000000
B        0.958333349         0.547616850         0.500000000
B        0.041666667         0.690474028         0.500000000
B        0.125000000         0.690474028         0.500000000
B        0.208333349         0.690474028         0.500000000
B        0.291666651         0.690474028         0.500000000
B        0.374999984         0.690474028         0.500000000
B        0.458333317         0.690474028         0.500000000
B        0.541666714         0.690474028         0.500000000
B        0.625000016         0.690474028         0.500000000
B        0.708333381         0.690474028         0.500000000
B        0.791666683         0.690474028         0.500000000
B        0.874999984         0.690474028         0.500000000
B        0.958333349         0.690474028         0.500000000
B        0.041666667         0.833331144         0.500000000
B        0.125000000         0.833331144         0.500000000
B        0.208333349         0.833331144         0.500000000
B        0.291666651         0.833331144         0.500000000
B        0.374999984         0.833331144         0.500000000
B        0.458333317         0.833331144         0.500000000
B        0.541666714         0.833331144         0.500000000
B        0.625000016         0.833331144         0.500000000
B        0.708333381         0.833331144         0.500000000
B        0.791666683         0.833331144         0.500000000
B        0.874999984         0.833331144         0.500000000
B        0.958333349         0.833331144         0.500000000
B        0.041666667         0.976188323         0.500000000
B        0.125000000         0.976188323         0.500000000
B        0.208333349         0.976188323         0.500000000
B        0.291666651         0.976188323         0.500000000
B        0.374999984         0.976188323         0.500000000
B        0.458333317         0.976188323         0.500000000
B        0.541666714         0.976188323         0.500000000
B        0.625000016         0.976188323         0.500000000
B        0.708333381         0.976188323         0.500000000
B        0.791666683         0.976188323         0.500000000
B        0.874999984         0.976188323         0.500000000
B        0.958333349         0.976188323         0.500000000
B        -0.000000000         0.047617187         0.500000000
B        0.083333333         0.047617187         0.500000000
B        0.166666667         0.047617187         0.500000000
B        0.250000000         0.047617187         0.500000000
B        0.333333333         0.047617187         0.500000000
B        0.416666667         0.047617187         0.500000000
B        0.500000000         0.047617187         0.500000000
B        0.583333302         0.047617187         0.500000000
B        0.666666667         0.047617187         0.500000000
B        0.749999968         0.047617187         0.500000000
B        0.833333333         0.047617187         0.500000000
B        0.916666698         0.047617187         0.500000000
B        -0.000000000         0.190474327         0.500000000
B        0.083333333         0.190474327         0.500000000
B        0.166666667         0.190474327         0.500000000
B        0.250000000         0.190474327         0.500000000
B        0.333333333         0.190474327         0.500000000
B        0.416666667         0.190474327         0.500000000
B        0.500000000         0.190474327         0.500000000
B        0.583333302         0.190474327         0.500000000
B        0.666666667         0.190474327         0.500000000
B        0.749999968         0.190474327         0.500000000
B        0.833333333         0.190474327         0.500000000
B        0.916666698         0.190474327         0.500000000
B        -0.000000000         0.333331490         0.500000000
B        0.083333333         0.333331490         0.500000000
B        0.166666667         0.333331490         0.500000000
B        0.250000000         0.333331490         0.500000000
B        0.333333333         0.333331490         0.500000000
B        0.416666667         0.333331490         0.500000000
B        0.500000000         0.333331490         0.500000000
B        0.583333302         0.333331490         0.500000000
B        0.666666667         0.333331490         0.500000000
B        0.749999968         0.333331490         0.500000000
B        0.833333333         0.333331490         0.500000000
B        0.916666698         0.333331490         0.500000000
B        -0.000000000         0.476188637         0.500000000
B        0.083333333         0.476188637         0.500000000
B        0.166666667         0.476188637         0.500000000
B        0.250000000         0.476188637         0.500000000
B        0.333333333         0.476188637         0.500000000
B        0.416666667         0.476188637         0.500000000
B        0.583333302         0.476188637         0.500000000
B        0.666666667         0.476188637         0.500000000
B        0.749999968         0.476188637         0.500000000
B        0.833333333         0.476188637         0.500000000
B        0.916666698         0.476188637         0.500000000
B        -0.000000000         0.619045785         0.500000000
B        0.083333333         0.619045785         0.500000000
B        0.166666667         0.619045785         0.500000000
B        0.250000000         0.619045785         0.500000000
B        0.333333333         0.619045785         0.500000000
B        0.416666667         0.619045785         0.500000000
B        0.500000000         0.619045785         0.500000000
B        0.583333302         0.619045785         0.500000000
B        0.666666667         0.619045785         0.500000000
B        0.749999968         0.619045785         0.500000000
B        0.833333333         0.619045785         0.500000000
B        0.916666698         0.619045785         0.500000000
B        -0.000000000         0.761902901         0.500000000
B        0.083333333         0.761902901         0.500000000
B        0.166666667         0.761902901         0.500000000
B        0.250000000         0.761902901         0.500000000
B        0.333333333         0.761902901         0.500000000
B        0.416666667         0.761902901         0.500000000
B        0.500000000         0.761902901         0.500000000
B        0.583333302         0.761902901         0.500000000
B        0.666666667         0.761902901         0.500000000
B        0.749999968         0.761902901         0.500000000
B        0.833333333         0.761902901         0.500000000
B        0.916666698         0.761902901         0.500000000
B        -0.000000000         0.904760079         0.500000000
B        0.083333333         0.904760079         0.500000000
B        0.166666667         0.904760079         0.500000000
B        0.250000000         0.904760079         0.500000000
B        0.333333333         0.904760079         0.500000000
B        0.416666667         0.904760079         0.500000000
B        0.500000000         0.904760079         0.500000000
B        0.583333302         0.904760079         0.500000000
B        0.666666667         0.904760079         0.500000000
B        0.749999968         0.904760079         0.500000000
B        0.833333333         0.904760079         0.500000000
B        0.916666698         0.904760079         0.500000000
N        0.041666667         0.023811498         0.500000000
N        0.125000000         0.023811498         0.500000000
N        0.208333349         0.023811498         0.500000000
N        0.291666651         0.023811498         0.500000000
N        0.374999984         0.023811498         0.500000000
N        0.458333317         0.023811498         0.500000000
N        0.541666714         0.023811498         0.500000000
N        0.625000016         0.023811498         0.500000000
N        0.708333381         0.023811498         0.500000000
N        0.791666683         0.023811498         0.500000000
N        0.874999984         0.023811498         0.500000000
N        0.958333349         0.023811498         0.500000000
N        0.041666667         0.166668651         0.500000000
N        0.125000000         0.166668651         0.500000000
N        0.208333349         0.166668651         0.500000000
N        0.291666651         0.166668651         0.500000000
N        0.374999984         0.166668651         0.500000000
N        0.458333317         0.166668651         0.500000000
N        0.541666714         0.166668651         0.500000000
N        0.625000016         0.166668651         0.500000000
N        0.708333381         0.166668651         0.500000000
N        0.791666683         0.166668651         0.500000000
N        0.874999984         0.166668651         0.500000000
N        0.958333349         0.166668651         0.500000000
N        0.041666667         0.309525783         0.500000000
N        0.125000000         0.309525783         0.500000000
N        0.208333349         0.309525783         0.500000000
N        0.291666651         0.309525783         0.500000000
N        0.374999984         0.309525783         0.500000000
N        0.458333317         0.309525783         0.500000000
N        0.541666714         0.309525783         0.500000000
N        0.625000016         0.309525783         0.500000000
N        0.708333381         0.309525783         0.500000000
N        0.791666683         0.309525783         0.500000000
N        0.874999984         0.309525783         0.500000000
N        0.958333349         0.309525783         0.500000000
N        0.041666667         0.452382930         0.500000000
N        0.125000000         0.452382930         0.500000000
N        0.208333349         0.452382930         0.500000000
N        0.291666651         0.452382930         0.500000000
N        0.374999984         0.452382930         0.500000000
N        0.625000016         0.452382930         0.500000000
N        0.708333381         0.452382930         0.500000000
N        0.791666683         0.452382930         0.500000000
N        0.874999984         0.452382930         0.500000000
N        0.958333349         0.452382930         0.500000000
N        0.041666667         0.595240141         0.500000000
N        0.125000000         0.595240141         0.500000000
N        0.208333349         0.595240141         0.500000000
N        0.291666651         0.595240141         0.500000000
N        0.374999984         0.595240141         0.500000000
N        0.458333317         0.595240141         0.500000000
N        0.541666714         0.595240141         0.500000000
N        0.625000016         0.595240141         0.500000000
N        0.708333381         0.595240141         0.500000000
N        0.791666683         0.595240141         0.500000000
N        0.874999984         0.595240141         0.500000000
N        0.958333349         0.595240141         0.500000000
N        0.041666667         0.738097256         0.500000000
N        0.125000000         0.738097256         0.500000000
N        0.208333349         0.738097256         0.500000000
N        0.291666651         0.738097256         0.500000000
N        0.374999984         0.738097256         0.500000000
N        0.458333317         0.738097256         0.500000000
N        0.541666714         0.738097256         0.500000000
N        0.625000016         0.738097256         0.500000000
N        0.708333381         0.738097256         0.500000000
N        0.791666683         0.738097256         0.500000000
N        0.874999984         0.738097256         0.500000000
N        0.958333349         0.738097256         0.500000000
N        0.041666667         0.880954372         0.500000000
N        0.125000000         0.880954372         0.500000000
N        0.208333349         0.880954372         0.500000000
N        0.291666651         0.880954372         0.500000000
N        0.374999984         0.880954372         0.500000000
N        0.458333317         0.880954372         0.500000000
N        0.541666714         0.880954372         0.500000000
N        0.625000016         0.880954372         0.500000000
N        0.708333381         0.880954372         0.500000000
N        0.791666683         0.880954372         0.500000000
N        0.874999984         0.880954372         0.500000000
N        0.958333349         0.880954372         0.500000000
N        -0.000000000         0.095240172         0.500000000
N        0.083333333         0.095240172         0.500000000
N        0.166666667         0.095240172         0.500000000
N        0.250000000         0.095240172         0.500000000
N        0.333333333         0.095240172         0.500000000
N        0.416666667         0.095240172         0.500000000
N        0.500000000         0.095240172         0.500000000
N        0.583333302         0.095240172         0.500000000
N        0.666666667         0.095240172         0.500000000
N        0.749999968         0.095240172         0.500000000
N        0.833333333         0.095240172         0.500000000
N        0.916666698         0.095240172         0.500000000
N        0.000000000         0.238097304         0.500000000
N        0.083333333         0.238097304         0.500000000
N        0.166666667         0.238097304         0.500000000
N        0.250000000         0.238097304         0.500000000
N        0.333333333         0.238097304         0.500000000
N        0.416666667         0.238097304         0.500000000
N        0.500000000         0.238097304         0.500000000
N        0.583333302         0.238097304         0.500000000
N        0.666666667         0.238097304         0.500000000
N        0.749999968         0.238097304         0.500000000
N        0.833333333         0.238097304         0.500000000
N        0.916666698         0.238097304         0.500000000
N        -0.000000000         0.380954467         0.500000000
N        0.083333333         0.380954467         0.500000000
N        0.166666667         0.380954467         0.500000000
N        0.250000000         0.380954467         0.500000000
N        0.333333333         0.380954467         0.500000000
N        0.416666667         0.380954467         0.500000000
N        0.500000000         0.380954467         0.500000000
N        0.583333302         0.380954467         0.500000000
N        0.666666667         0.380954467         0.500000000
N        0.749999968         0.380954467         0.500000000
N        0.833333333         0.380954467         0.500000000
N        0.916666698         0.380954467         0.500000000
N        0.000000000         0.523811583         0.500000000
N        0.083333333         0.523811583         0.500000000
N        0.166666667         0.523811583         0.500000000
N        0.250000000         0.523811583         0.500000000
N        0.333333333         0.523811583         0.500000000
N        0.416666667         0.523811583         0.500000000
N        0.583333302         0.523811583         0.500000000
N        0.666666667         0.523811583         0.500000000
N        0.749999968         0.523811583         0.500000000
N        0.833333333         0.523811583         0.500000000
N        0.916666698         0.523811583         0.500000000
N        -0.000000000         0.666668761         0.500000000
N        0.083333333         0.666668761         0.500000000
N        0.166666667         0.666668761         0.500000000
N        0.250000000         0.666668761         0.500000000
N        0.333333333         0.666668761         0.500000000
N        0.416666667         0.666668761         0.500000000
N        0.500000000         0.666668761         0.500000000
N        0.583333302         0.666668761         0.500000000
N        0.666666667         0.666668761         0.500000000
N        0.749999968         0.666668761         0.500000000
N        0.833333333         0.666668761         0.500000000
N        0.916666698         0.666668761         0.500000000
N        0.000000000         0.809525877         0.500000000
N        0.083333333         0.809525877         0.500000000
N        0.166666667         0.809525877         0.500000000
N        0.250000000         0.809525877         0.500000000
N        0.333333333         0.809525877         0.500000000
N        0.416666667         0.809525877         0.500000000
N        0.500000000         0.809525877         0.500000000
N        0.583333302         0.809525877         0.500000000
N        0.666666667         0.809525877         0.500000000
N        0.749999968         0.809525877         0.500000000
N        0.833333333         0.809525877         0.500000000
N        0.916666698         0.809525877         0.500000000
N        -0.000000000         0.952383056         0.500000000
N        0.083333333         0.952383056         0.500000000
N        0.166666667         0.952383056         0.500000000
N        0.250000000         0.952383056         0.500000000
N        0.333333333         0.952383056         0.500000000
N        0.416666667         0.952383056         0.500000000
N        0.500000000         0.952383056         0.500000000
N        0.583333302         0.952383056         0.500000000
N        0.666666667         0.952383056         0.500000000
N        0.749999968         0.952383056         0.500000000
N        0.833333333         0.952383056         0.500000000
N        0.916666698         0.952383056         0.500000000
n        0.500000000         0.523811583         0.500000000
n        0.458333317         0.452382930         0.500000000
n        0.541666714         0.452382930         0.500000000
