&CONTROL
calculation = 'scf'
restart_mode = 'from_scratch'
prefix = 'h-BN'
pseudo_dir = '/home/dlwodnr95/PSEUDOPOTENTIALS'
outdir = './out/'
wf_collect = .TRUE.
tprnfor = .TRUE.
tstress = .TRUE.
verbosity = 'high'
nstep = 80
/
&SYSTEM
ibrav = 0
nat = 335
ntyp = 3
ecutwfc = 85
nosym = .TRUE.
occupations = 'fixed'
nbnd = 800
nspin = 2
tot_charge = -1.0
tot_magnetization = 2.0
/
&ELECTRONS
electron_maxstep = 600
conv_thr = 1.0d-7
mixing_mode = 'plain'
mixing_beta = 0.7
diagonalization = 'david'
startingpot = 'atomic'
startingwfc = 'atomic+random'
/
K_POINTS automatic
1 1 1 0 0 0
ATOMIC_SPECIES
B   10.8110  B.pbesol-n-kjpaw_psl.0.1.UPF
N   14.5341  N.pbesol-n-kjpaw_psl.0.1.UPF
n   14.5341  N.pbesol-n-kjpaw_psl.0.1.UPF
CELL_PARAMETERS (angstrom)
ATOMIC_POSITIONS (crystal)
