&CONTROL
calculation = 'relax'
restart_mode = 'from_scratch'
prefix = 'h_BN'
pseudo_dir = '/home/dlwodnr95/PSEUDOPOTENTIALS'
outdir = './out/'
wf_collect = .TRUE.
tprnfor = .TRUE.
tstress = .TRUE.
verbosity = 'high'
forc_conv_thr = 0.389D-3
nstep = 80
/
&SYSTEM
ibrav = 0
nat = 335
ntyp = 3
ecutwfc = 85
nosym = .TRUE.
occupations = 'fixed'
nbnd = 800
nspin = 2
tot_charge = -1.0
tot_magnetization = 2.0
/
&ELECTRONS
electron_maxstep = 600
conv_thr = 1.0d-7
mixing_mode = 'plain'
mixing_beta = 0.7
diagonalization = 'david'
startingpot = 'atomic'
startingwfc = 'atomic+random'
/
&IONS
ion_dynamics = 'bfgs'
ion_positions = 'default'
/
K_POINTS automatic
1 1 1 0 0 0
ATOMIC_SPECIES
B   10.8110  B.pbesol-n-kjpaw_psl.0.1.UPF
N   14.5341  N.pbesol-n-kjpaw_psl.0.1.UPF
n   14.5341  N.pbesol-n-kjpaw_psl.0.1.UPF
CELL_PARAMETERS (angstrom)
30.0387840000    0.0000000000    0.0000000000
0.0000000000    30.3518620000    0.0000000000
0.0000000000    0.0000000000    9.9995365000
ATOMIC_POSITIONS (crystal)
B        0.041666667   0.119045431   0.500000364    0   0   0
B        0.125000000   0.119045431   0.500002410    0   0   0
B        0.208333349   0.119045431   0.500013130    0   0   0
B        0.291666651   0.119045431   0.500054364    0   0   0
B        0.374999984   0.119045431   0.500154403    0   0   0
B        0.458333317   0.119045431   0.500269964    0   0   0
B        0.541666714   0.119045431   0.500269964    0   0   0
B        0.625000016   0.119045431   0.500154403    0   0   0
B        0.708333381   0.119045431   0.500054364    0   0   0
B        0.791666683   0.119045431   0.500013130    0   0   0
B        0.874999984   0.119045431   0.500002410    0   0   0
B        0.958333349   0.119045431   0.500000364    0   0   0
B        0.041666667   0.261902571   0.500003619    0   0   0
B        0.125000000   0.261902571   0.500033290    0   0   0
B        0.208333349   0.261902571   0.500270075    0   0   0
B        0.291666651   0.261902571   0.501753668    0   0   0
B        0.374999984   0.261902571   0.507516101    0   0   0
B        0.458333317   0.261902571   0.516475571    0   0   0
B        0.541666714   0.261902571   0.516475568    0   0   0
B        0.625000016   0.261902571   0.507516101    0   0   0
B        0.708333381   0.261902571   0.501753667    0   0   0
B        0.791666683   0.261902571   0.500270074    0   0   0
B        0.874999984   0.261902571   0.500033290    0   0   0
B        0.958333349   0.261902571   0.500003619    0   0   0
B        0.041666667   0.404759734   0.500013137    0   0   0
B        0.125000000   0.404759734   0.500154493    0   0   0
B        0.208333349   0.404759734   0.501754101    0   0   0
B        0.291666651   0.404759734   0.516480265    0   0   0
B        0.374999984   0.404759734   0.566023511    0   0   0
B        0.458756487   0.405034494   0.596505729
B        0.541243629   0.405034761   0.596505784
B        0.625000016   0.404759734   0.566023511    0   0   0
B        0.708333381   0.404759734   0.516480252    0   0   0
B        0.791666683   0.404759734   0.501754100    0   0   0
B        0.874999984   0.404759734   0.500154493    0   0   0
B        0.958333349   0.404759734   0.500013137    0   0   0
B        0.041666667   0.547616850   0.500013137    0   0   0
B        0.125000000   0.547616850   0.500154494    0   0   0
B        0.208333349   0.547616850   0.501754110    0   0   0
B        0.291666651   0.547616850   0.516480359    0   0   0
B        0.374999984   0.547616850   0.566023746    0   0   0
B        0.458359931   0.547123563   0.596504816
B        0.541641113   0.547123823   0.596504515
B        0.625000016   0.547616850   0.566023746    0   0   0
B        0.708333381   0.547616850   0.516480346    0   0   0
B        0.791666683   0.547616850   0.501754109    0   0   0
B        0.874999984   0.547616850   0.500154494    0   0   0
B        0.958333349   0.547616850   0.500013137    0   0   0
B        0.041666667   0.690474028   0.500003619    0   0   0
B        0.125000000   0.690474028   0.500033291    0   0   0
B        0.208333349   0.690474028   0.500270078    0   0   0
B        0.291666651   0.690474028   0.501753694    0   0   0
B        0.374999984   0.690474028   0.507516225    0   0   0
B        0.458333317   0.690474028   0.516475848    0   0   0
B        0.541666714   0.690474028   0.516475845    0   0   0
B        0.625000016   0.690474028   0.507516225    0   0   0
B        0.708333381   0.690474028   0.501753693    0   0   0
B        0.791666683   0.690474028   0.500270078    0   0   0
B        0.874999984   0.690474028   0.500033291    0   0   0
B        0.958333349   0.690474028   0.500003619    0   0   0
B        0.041666667   0.833331144   0.500000364    0   0   0
B        0.125000000   0.833331144   0.500002410    0   0   0
B        0.208333349   0.833331144   0.500013131    0   0   0
B        0.291666651   0.833331144   0.500054365    0   0   0
B        0.374999984   0.833331144   0.500154406    0   0   0
B        0.458333317   0.833331144   0.500269970    0   0   0
B        0.541666714   0.833331144   0.500269970    0   0   0
B        0.625000016   0.833331144   0.500154406    0   0   0
B        0.708333381   0.833331144   0.500054365    0   0   0
B        0.791666683   0.833331144   0.500013131    0   0   0
B        0.874999984   0.833331144   0.500002410    0   0   0
B        0.958333349   0.833331144   0.500000364    0   0   0
B        0.041666667   0.976188323   0.500000019    0   0   0
B        0.125000000   0.976188323   0.500000092    0   0   0
B        0.208333349   0.976188323   0.500000364    0   0   0
B        0.291666651   0.976188323   0.500001102    0   0   0
B        0.374999984   0.976188323   0.500002409    0   0   0
B        0.458333317   0.976188323   0.500003616    0   0   0
B        0.541666714   0.976188323   0.500003616    0   0   0
B        0.625000016   0.976188323   0.500002409    0   0   0
B        0.708333381   0.976188323   0.500001102    0   0   0
B        0.791666683   0.976188323   0.500000364    0   0   0
B        0.874999984   0.976188323   0.500000092    0   0   0
B        0.958333349   0.976188323   0.500000019    0   0   0
B        0.000000000   0.047617187   0.500000035    0   0   0
B        0.083333333   0.047617187   0.500000215    0   0   0
B        0.166666667   0.047617187   0.500001102    0   0   0
B        0.250000000   0.047617187   0.500004450    0   0   0
B        0.333333333   0.047617187   0.500013128    0   0   0
B        0.416666667   0.047617187   0.500026209    0   0   0
B        0.500000000   0.047617187   0.500033271    0   0   0
B        0.583333302   0.047617187   0.500026209    0   0   0
B        0.666666667   0.047617187   0.500013128    0   0   0
B        0.749999968   0.047617187   0.500004450    0   0   0
B        0.833333333   0.047617187   0.500001102    0   0   0
B        0.916666698   0.047617187   0.500000215    0   0   0
B        0.000000000   0.190474327   0.500000436    0   0   0
B        0.083333333   0.190474327   0.500003619    0   0   0
B        0.166666667   0.190474327   0.500026220    0   0   0
B        0.250000000   0.190474327   0.500154438    0   0   0
B        0.333333333   0.190474327   0.500660485    0   0   0
B        0.416666667   0.190474327   0.501753311    0   0   0
B        0.500000000   0.190474327   0.502479722    0   0   0
B        0.583333302   0.190474327   0.501753312    0   0   0
B        0.666666667   0.190474327   0.500660485    0   0   0
B        0.749999968   0.190474327   0.500154438    0   0   0
B        0.833333333   0.190474327   0.500026220    0   0   0
B        0.916666698   0.190474327   0.500003619    0   0   0
B        0.000000000   0.333331490   0.500002411    0   0   0
B        0.083333333   0.333331490   0.500026226    0   0   0
B        0.166666667   0.333331490   0.500270110    0   0   0
B        0.250000000   0.333331490   0.502480650    0   0   0
B        0.333333333   0.333331490   0.516478590    0   0   0
B        0.416666667   0.333331490   0.549835181    0   0   0
B        0.500000000   0.333331490   0.566019335    0   0   0
B        0.583333302   0.333331490   0.549835193    0   0   0
B        0.666666667   0.333331490   0.516478590    0   0   0
B        0.749999968   0.333331490   0.502480652    0   0   0
B        0.833333333   0.333331490   0.500270110    0   0   0
B        0.916666698   0.333331490   0.500026226    0   0   0
B        0.000000000   0.476188637   0.500004453    0   0   0
B        0.083333333   0.476188637   0.500054395    0   0   0
B        0.166666667   0.476188637   0.500660776    0   0   0
B        0.250000000   0.476188637   0.507518473    0   0   0
B        0.333333333   0.476188637   0.549840710    0   0   0
B        0.417113755   0.476417224   0.596510645
B        0.582886814   0.476417757   0.596510422
B        0.666666667   0.476188637   0.549840710    0   0   0
B        0.749999968   0.476188637   0.507518479    0   0   0
B        0.833333333   0.476188637   0.500660776    0   0   0
B        0.916666698   0.476188637   0.500054395    0   0   0
B        0.000000000   0.619045785   0.500002411    0   0   0
B        0.083333333   0.619045785   0.500026226    0   0   0
B        0.166666667   0.619045785   0.500270110    0   0   0
B        0.250000000   0.619045785   0.502480650    0   0   0
B        0.333333333   0.619045785   0.516478589    0   0   0
B        0.416666667   0.619045785   0.549835180    0   0   0
B        0.500000000   0.619045785   0.566019335    0   0   0
B        0.583333302   0.619045785   0.549835192    0   0   0
B        0.666666667   0.619045785   0.516478589    0   0   0
B        0.749999968   0.619045785   0.502480652    0   0   0
B        0.833333333   0.619045785   0.500270110    0   0   0
B        0.916666698   0.619045785   0.500026226    0   0   0
B        0.000000000   0.761902901   0.500000436    0   0   0
B        0.083333333   0.761902901   0.500003619    0   0   0
B        0.166666667   0.761902901   0.500026220    0   0   0
B        0.250000000   0.761902901   0.500154438    0   0   0
B        0.333333333   0.761902901   0.500660486    0   0   0
B        0.416666667   0.761902901   0.501753314    0   0   0
B        0.500000000   0.761902901   0.502479726    0   0   0
B        0.583333302   0.761902901   0.501753314    0   0   0
B        0.666666667   0.761902901   0.500660486    0   0   0
B        0.749999968   0.761902901   0.500154438    0   0   0
B        0.833333333   0.761902901   0.500026220    0   0   0
B        0.916666698   0.761902901   0.500003619    0   0   0
B        0.000000000   0.904760079   0.500000035    0   0   0
B        0.083333333   0.904760079   0.500000215    0   0   0
B        0.166666667   0.904760079   0.500001102    0   0   0
B        0.250000000   0.904760079   0.500004450    0   0   0
B        0.333333333   0.904760079   0.500013128    0   0   0
B        0.416666667   0.904760079   0.500026209    0   0   0
B        0.500000000   0.904760079   0.500033271    0   0   0
B        0.583333302   0.904760079   0.500026209    0   0   0
B        0.666666667   0.904760079   0.500013128    0   0   0
B        0.749999968   0.904760079   0.500004450    0   0   0
B        0.833333333   0.904760079   0.500001102    0   0   0
B        0.916666698   0.904760079   0.500000215    0   0   0
N        0.041666667   0.023811498   0.500000053    0   0   0
N        0.125000000   0.023811498   0.500000287    0   0   0
N        0.208333349   0.023811498   0.500001253    0   0   0
N        0.291666651   0.023811498   0.500004152    0   0   0
N        0.374999984   0.023811498   0.500009759    0   0   0
N        0.458333317   0.023811498   0.500015263    0   0   0
N        0.541666714   0.023811498   0.500015263    0   0   0
N        0.625000016   0.023811498   0.500009759    0   0   0
N        0.708333381   0.023811498   0.500004152    0   0   0
N        0.791666683   0.023811498   0.500001253    0   0   0
N        0.874999984   0.023811498   0.500000287    0   0   0
N        0.958333349   0.023811498   0.500000053    0   0   0
N        0.041666667   0.166668651   0.500000857    0   0   0
N        0.125000000   0.166668651   0.500006328    0   0   0
N        0.208333349   0.166668651   0.500039122    0   0   0
N        0.291666651   0.166668651   0.500185500    0   0   0
N        0.374999984   0.166668651   0.500595796    0   0   0
N        0.458333317   0.166668651   0.501123448    0   0   0
N        0.541666714   0.166668651   0.501123448    0   0   0
N        0.625000016   0.166668651   0.500595796    0   0   0
N        0.708333381   0.166668651   0.500185500    0   0   0
N        0.791666683   0.166668651   0.500039121    0   0   0
N        0.874999984   0.166668651   0.500006328    0   0   0
N        0.958333349   0.166668651   0.500000857    0   0   0
N        0.041666667   0.309525783   0.500006330    0   0   0
N        0.125000000   0.309525783   0.500064335    0   0   0
N        0.208333349   0.309525783   0.500595983    0   0   0
N        0.291666651   0.309525783   0.504535447    0   0   0
N        0.374999984   0.309525783   0.521420711    0   0   0
N        0.458333317   0.309525783   0.544744831    0   0   0
N        0.541666714   0.309525783   0.544744826    0   0   0
N        0.625000016   0.309525783   0.521420711    0   0   0
N        0.708333381   0.309525783   0.504535444    0   0   0
N        0.791666683   0.309525783   0.500595982    0   0   0
N        0.874999984   0.309525783   0.500064335    0   0   0
N        0.958333349   0.309525783   0.500006330    0   0   0
N        0.041666667   0.452382930   0.500015273    0   0   0
N        0.125000000   0.452382930   0.500185568    0   0   0
N        0.208333349   0.452382930   0.502207455    0   0   0
N        0.291666651   0.452382930   0.521423311    0   0   0
N        0.374999984   0.452382930   0.576431070    0   0   0
N        0.625000016   0.452382930   0.576431070    0   0   0
N        0.708333381   0.452382930   0.521423295    0   0   0
N        0.791666683   0.452382930   0.502207453    0   0   0
N        0.874999984   0.452382930   0.500185568    0   0   0
N        0.958333349   0.452382930   0.500015273    0   0   0
N        0.041666667   0.595240141   0.500009765    0   0   0
N        0.125000000   0.595240141   0.500107983    0   0   0
N        0.208333349   0.595240141   0.501123790    0   0   0
N        0.291666651   0.595240141   0.509741148    0   0   0
N        0.374999984   0.595240141   0.544743528    0   0   0
N        0.458333317   0.595240141   0.576425197    0   0   0
N        0.541666714   0.595240141   0.576425191    0   0   0
N        0.625000016   0.595240141   0.544743528    0   0   0
N        0.708333381   0.595240141   0.509741140    0   0   0
N        0.791666683   0.595240141   0.501123789    0   0   0
N        0.874999984   0.595240141   0.500107983    0   0   0
N        0.958333349   0.595240141   0.500009765    0   0   0
N        0.041666667   0.738097256   0.500001850    0   0   0
N        0.125000000   0.738097256   0.500015268    0   0   0
N        0.208333349   0.738097256   0.500107952    0   0   0
N        0.291666651   0.738097256   0.500595764    0   0   0
N        0.374999984   0.738097256   0.502206299    0   0   0
N        0.458333317   0.738097256   0.504533442    0   0   0
N        0.541666714   0.738097256   0.504533441    0   0   0
N        0.625000016   0.738097256   0.502206299    0   0   0
N        0.708333381   0.738097256   0.500595764    0   0   0
N        0.791666683   0.738097256   0.500107952    0   0   0
N        0.874999984   0.738097256   0.500015268    0   0   0
N        0.958333349   0.738097256   0.500001850    0   0   0
N        0.041666667   0.880954372   0.500000144    0   0   0
N        0.125000000   0.880954372   0.500000856    0   0   0
N        0.208333349   0.880954372   0.500004152    0   0   0
N        0.291666651   0.880954372   0.500015262    0   0   0
N        0.374999984   0.880954372   0.500039103    0   0   0
N        0.458333317   0.880954372   0.500064286    0   0   0
N        0.541666714   0.880954372   0.500064286    0   0   0
N        0.625000016   0.880954372   0.500039103    0   0   0
N        0.708333381   0.880954372   0.500015262    0   0   0
N        0.791666683   0.880954372   0.500004152    0   0   0
N        0.874999984   0.880954372   0.500000856    0   0   0
N        0.958333349   0.880954372   0.500000144    0   0   0
N        0.000000000   0.095240172   0.500000087    0   0   0
N        0.083333333   0.095240172   0.500000591    0   0   0
N        0.166666667   0.095240172   0.500003379    0   0   0
N        0.250000000   0.095240172   0.500015266    0   0   0
N        0.333333333   0.095240172   0.500050030    0   0   0
N        0.416666667   0.095240172   0.500107935    0   0   0
N        0.500000000   0.095240172   0.500141043    0   0   0
N        0.583333302   0.095240172   0.500107935    0   0   0
N        0.666666667   0.095240172   0.500050030    0   0   0
N        0.749999968   0.095240172   0.500015266    0   0   0
N        0.833333333   0.095240172   0.500003379    0   0   0
N        0.916666698   0.095240172   0.500000591    0   0   0
N        0.000000000   0.238097304   0.500000857    0   0   0
N        0.083333333   0.238097304   0.500007849    0   0   0
N        0.166666667   0.238097304   0.500064328    0   0   0
N        0.250000000   0.238097304   0.500439908    0   0   0
N        0.333333333   0.238097304   0.502206897    0   0   0
N        0.416666667   0.238097304   0.506612841    0   0   0
N        0.500000000   0.238097304   0.509739906    0   0   0
N        0.583333302   0.238097304   0.506612843    0   0   0
N        0.666666667   0.238097304   0.502206897    0   0   0
N        0.749999968   0.238097304   0.500439908    0   0   0
N        0.833333333   0.238097304   0.500064328    0   0   0
N        0.916666698   0.238097304   0.500007848    0   0   0
N        0.000000000   0.380954467   0.500003380    0   0   0
N        0.083333333   0.380954467   0.500039134    0   0   0
N        0.166666667   0.380954467   0.500439995    0   0   0
N        0.250000000   0.380954467   0.504535865    0   0   0
N        0.333333333   0.380954467   0.531412064    0   0   0
N        0.416666667   0.380954467   0.576430134    0   0   0
N        0.499999956   0.379739476   0.593419900
N        0.583333302   0.380954467   0.576430145    0   0   0
N        0.666666667   0.380954467   0.531412064    0   0   0
N        0.749999968   0.380954467   0.504535869    0   0   0
N        0.833333333   0.380954467   0.500439995    0   0   0
N        0.916666698   0.380954467   0.500039134    0   0   0
N        0.000000000   0.523811583   0.500004154    0   0   0
N        0.083333333   0.523811583   0.500050055    0   0   0
N        0.166666667   0.523811583   0.500596019    0   0   0
N        0.250000000   0.523811583   0.506614395    0   0   0
N        0.333333333   0.523811583   0.544747810    0   0   0
N        0.415605820   0.524417114   0.593427157
N        0.584393980   0.524417041   0.593426947
N        0.666666667   0.523811583   0.544747810    0   0   0
N        0.749999968   0.523811583   0.506614401    0   0   0
N        0.833333333   0.523811583   0.500596019    0   0   0
N        0.916666698   0.523811583   0.500050055    0   0   0
N        0.000000000   0.666668761   0.500001521    0   0   0
N        0.083333333   0.666668761   0.500015270    0   0   0
N        0.166666667   0.666668761   0.500141090    0   0   0
N        0.250000000   0.666668761   0.501123618    0   0   0
N        0.333333333   0.666668761   0.506612486    0   0   0
N        0.416666667   0.666668761   0.521416076    0   0   0
N        0.500000000   0.666668761   0.531402709    0   0   0
N        0.583333302   0.666668761   0.521416082    0   0   0
N        0.666666667   0.666668761   0.506612486    0   0   0
N        0.749999968   0.666668761   0.501123618    0   0   0
N        0.833333333   0.666668761   0.500141090    0   0   0
N        0.916666698   0.666668761   0.500015270    0   0   0
N        0.000000000   0.809525877   0.500000203    0   0   0
N        0.083333333   0.809525877   0.500001520    0   0   0
N        0.166666667   0.809525877   0.500009761    0   0   0
N        0.250000000   0.809525877   0.500050028    0   0   0
N        0.333333333   0.809525877   0.500185449    0   0   0
N        0.416666667   0.809525877   0.500439697    0   0   0
N        0.500000000   0.809525877   0.500595614    0   0   0
N        0.583333302   0.809525877   0.500439697    0   0   0
N        0.666666667   0.809525877   0.500185449    0   0   0
N        0.749999968   0.809525877   0.500050028    0   0   0
N        0.833333333   0.809525877   0.500009761    0   0   0
N        0.916666698   0.809525877   0.500001520    0   0   0
N        0.000000000   0.952383056   0.500000013    0   0   0
N        0.083333333   0.952383056   0.500000074    0   0   0
N        0.166666667   0.952383056   0.500000343    0   0   0
N        0.250000000   0.952383056   0.500001252    0   0   0
N        0.333333333   0.952383056   0.500003377    0   0   0
N        0.416666667   0.952383056   0.500006324    0   0   0
N        0.500000000   0.952383056   0.500007842    0   0   0
N        0.583333302   0.952383056   0.500006324    0   0   0
N        0.666666667   0.952383056   0.500003377    0   0   0
N        0.749999968   0.952383056   0.500001252    0   0   0
N        0.833333333   0.952383056   0.500000343    0   0   0
N        0.916666698   0.952383056   0.500000074    0   0   0
n        0.499999160   0.526842569   0.611212197
n        0.544318899   0.450865552   0.611223364
n        0.455680958   0.450866417   0.611223553
