POSCAR
1.00000
30.0387840     0.0000000     0.0000000
 0.0000000    30.3518620     0.0000000
 0.0000000     0.0000000    11.6595365
B N VB 
168 168 1 
Direct
0.041666667    0.119045431    0.500162160  0  0  0
0.125000000    0.119045431    0.501070038
0.208333349    0.119045431    0.505738410
0.291666651    0.119045431    0.522421958
0.374999984    0.119045431    0.556032114
0.458333317    0.119045431    0.586031038
0.541666714    0.119045431    0.586031032
0.625000016    0.119045431    0.556032114
0.708333381    0.119045431    0.522421948
0.791666683    0.119045431    0.505738407
0.874999984    0.119045431    0.501070038
0.958333349    0.119045431    0.500162160  0  0  0
0.041666667    0.261902571    0.501603684
0.125000000    0.261902571    0.514136824
0.208333349    0.261902571    0.586056224
0.291666651    0.261902571    0.717919028
0.374999984    0.261902571    0.777199966
0.458333317    0.261902571    0.790267755
0.541666714    0.261902571    0.790267754
0.625000016    0.261902571    0.777199966
0.708333381    0.261902571    0.717918988
0.791666683    0.261902571    0.586056177
0.874999984    0.261902571    0.514136830
0.958333349    0.261902571    0.501603683
0.041666667    0.404759734    0.505741129
0.125000000    0.404759734    0.556058877
0.208333349    0.404759734    0.717934035
0.291666651    0.404759734    0.790271025
0.374999984    0.404759734    0.799146050
0.458333317    0.404759734    0.800016967
0.541666714    0.404759734    0.800016967
0.625000016    0.404759734    0.799146050
0.708333381    0.404759734    0.790271016
0.791666683    0.404759734    0.717933979
0.874999984    0.404759734    0.556058899
0.958333349    0.404759734    0.505741126
0.041666667    0.547616850    0.505741147
0.125000000    0.547616850    0.556059058
0.208333349    0.547616850    0.717934336
0.291666651    0.547616850    0.790271091
0.374999984    0.547616850    0.799146061
0.458333317    0.547616850    0.800016970
0.541666714    0.547616850    0.800016970
0.625000016    0.547616850    0.799146061
0.708333381    0.547616850    0.790271082
0.791666683    0.547616850    0.717934280
0.874999984    0.547616850    0.556059079
0.958333349    0.547616850    0.505741144
0.041666667    0.690474028    0.501603698
0.125000000    0.690474028    0.514136962
0.208333349    0.690474028    0.586056974
0.291666651    0.690474028    0.717919909
0.374999984    0.690474028    0.777200343
0.458333317    0.690474028    0.790267948
0.541666714    0.690474028    0.790267947
0.625000016    0.690474028    0.777200343
0.708333381    0.690474028    0.717919869
0.791666683    0.690474028    0.586056926
0.874999984    0.690474028    0.514136968
0.958333349    0.690474028    0.501603697
0.041666667    0.833331144    0.500162162  0  0  0
0.125000000    0.833331144    0.501070054
0.208333349    0.833331144    0.505738503
0.291666651    0.833331144    0.522422339
0.374999984    0.833331144    0.556033028
0.458333317    0.833331144    0.586032332
0.541666714    0.833331144    0.586032325
0.625000016    0.833331144    0.556033028
0.708333381    0.833331144    0.522422329
0.791666683    0.833331144    0.505738500
0.874999984    0.833331144    0.501070054
0.958333349    0.833331144    0.500162162  0  0  0
0.041666667    0.976188323    0.500008345  0  0  0
0.125000000    0.976188323    0.500040949  0  0  0
0.208333349    0.976188323    0.500162101  0  0  0
0.291666651    0.976188323    0.500490246  0  0  0
0.374999984    0.976188323    0.501069603
0.458333317    0.976188323    0.501602547
0.541666714    0.976188323    0.501602547
0.625000016    0.976188323    0.501069603
0.708333381    0.976188323    0.500490246  0  0  0
0.791666683    0.976188323    0.500162101  0  0  0
0.874999984    0.976188323    0.500040949  0  0  0
0.958333349    0.976188323    0.500008345  0  0  0
0.000000000    0.047617187    0.500015531  0  0  0
0.083333333    0.047617187    0.500095604  0  0  0
0.166666667    0.047617187    0.500490349  0  0  0
0.250000000    0.047617187    0.501969452
0.333333333    0.047617187    0.505737222
0.416666667    0.047617187    0.511241524
0.500000000    0.047617187    0.514129152
0.583333302    0.047617187    0.511241526
0.666666667    0.047617187    0.505737222
0.749999968    0.047617187    0.501969453
0.833333333    0.047617187    0.500490349  0  0  0
0.916666698    0.047617187    0.500095604  0  0  0
0.000000000    0.190474327    0.500194095  0  0  0
0.083333333    0.190474327    0.501603487
0.166666667    0.190474327    0.511246047
0.250000000    0.190474327    0.556042445
0.333333333    0.190474327    0.649088322
0.416666667    0.190474327    0.717906648
0.500000000    0.190474327    0.737299836
0.583333302    0.190474327    0.717906664
0.666666667    0.190474327    0.649088322
0.749999968    0.190474327    0.556042474
0.833333333    0.190474327    0.511246047
0.916666698    0.190474327    0.501603486
0.000000000    0.333331490    0.501070442
0.083333333    0.333331490    0.511248765
0.166666667    0.333331490    0.586064372
0.250000000    0.333331490    0.737318901
0.333333333    0.333331490    0.790269858
0.416666667    0.333331490    0.798160990
0.500000000    0.333331490    0.799145858
0.583333302    0.333331490    0.798160991
0.666666667    0.333331490    0.790269858
0.749999968    0.333331490    0.737318943
0.833333333    0.333331490    0.586064372
0.916666698    0.333331490    0.511248756
0.000000000    0.476188637    0.501970752
0.083333333    0.476188637    0.522433622
0.166666667    0.476188637    0.649121550
0.250000000    0.476188637    0.777207205
0.333333333    0.476188637    0.798161435
0.416666667    0.476188637    0.800016987
0.500000000    0.476188637    0.800169831
0.583333302    0.476188637    0.800016987
0.666666667    0.476188637    0.798161435
0.749999968    0.476188637    0.777207225
0.833333333    0.476188637    0.649121550
0.916666698    0.476188637    0.522433603
0.000000000    0.619045785    0.501070442
0.083333333    0.619045785    0.511248765
0.166666667    0.619045785    0.586064372
0.250000000    0.619045785    0.737318901
0.333333333    0.619045785    0.790269858
0.416666667    0.619045785    0.798160990
0.500000000    0.619045785    0.799145857
0.583333302    0.619045785    0.798160991
0.666666667    0.619045785    0.790269858
0.749999968    0.619045785    0.737318942
0.833333333    0.619045785    0.586064372
0.916666698    0.619045785    0.511248756
0.000000000    0.761902901    0.500194095  0  0  0
0.083333333    0.761902901    0.501603489
0.166666667    0.761902901    0.511246057
0.250000000    0.761902901    0.556042494
0.333333333    0.761902901    0.649088412
0.416666667    0.761902901    0.717906728
0.500000000    0.761902901    0.737299905
0.583333302    0.761902901    0.717906744
0.666666667    0.761902901    0.649088412
0.749999968    0.761902901    0.556042522
0.833333333    0.761902901    0.511246057
0.916666698    0.761902901    0.501603487
0.000000000    0.904760079    0.500015531  0  0  0
0.083333333    0.904760079    0.500095604  0  0  0
0.166666667    0.904760079    0.500490349  0  0  0
0.250000000    0.904760079    0.501969453
0.333333333    0.904760079    0.505737224
0.416666667    0.904760079    0.511241526
0.500000000    0.904760079    0.514129155
0.583333302    0.904760079    0.511241528
0.666666667    0.904760079    0.505737224
0.749999968    0.904760079    0.501969454
0.833333333    0.904760079    0.500490349  0  0  0
0.916666698    0.904760079    0.500095604  0  0  0
0.041666667    0.023811498    0.500023756  0  0  0
0.125000000    0.023811498    0.500127965  0  0  0
0.208333349    0.023811498    0.500557054  0  0  0
0.291666651    0.023811498    0.501838324
0.374999984    0.023811498    0.504286047
0.458333317    0.023811498    0.506649728
0.541666714    0.023811498    0.506649727
0.625000016    0.023811498    0.504286047
0.708333381    0.023811498    0.501838324
0.791666683    0.023811498    0.500557053  0  0  0
0.874999984    0.023811498    0.500127965  0  0  0
0.958333349    0.023811498    0.500023756  0  0  0
0.041666667    0.166668651    0.500381188  0  0  0
0.125000000    0.166668651    0.502793135
0.208333349    0.166668651    0.516478034
0.291666651    0.166668651    0.564893952
0.374999984    0.166668651    0.641314060
0.458333317    0.166668651    0.688433643
0.541666714    0.166668651    0.688433634
0.625000016    0.166668651    0.641314060
0.708333381    0.166668651    0.564893925
0.791666683    0.166668651    0.516478024
0.874999984    0.166668651    0.502793136
0.958333349    0.166668651    0.500381188  0  0  0
0.041666667    0.309525783    0.502793736
0.125000000    0.309525783    0.526178091
0.208333349    0.309525783    0.641337645
0.291666651    0.309525783    0.762896608
0.374999984    0.309525783    0.792942277
0.458333317    0.309525783    0.797706140
0.541666714    0.309525783    0.797706140
0.625000016    0.309525783    0.792942277
0.708333381    0.309525783    0.762896584
0.791666683    0.309525783    0.641337583
0.874999984    0.309525783    0.526178102
0.958333349    0.309525783    0.502793735
0.041666667    0.452382930    0.506654240
0.125000000    0.452382930    0.564912707
0.208333349    0.452382930    0.731174931
0.291666651    0.452382930    0.792943368
0.374999984    0.452382930    0.799560918
0.458333317    0.452382930    0.800125649
0.541666714    0.452382930    0.800125649
0.625000016    0.452382930    0.799560918
0.708333381    0.452382930    0.792943361
0.791666683    0.452382930    0.731174880
0.874999984    0.452382930    0.564912731
0.958333349    0.452382930    0.506654237
0.041666667    0.595240141    0.504288516
0.125000000    0.595240141    0.541499922
0.208333349    0.595240141    0.688455222
0.291666651    0.595240141    0.782542838
0.374999984    0.595240141    0.797706011
0.458333317    0.595240141    0.799560715
0.541666714    0.595240141    0.799560715
0.625000016    0.595240141    0.797706011
0.708333381    0.595240141    0.782542824
0.791666683    0.595240141    0.688455160
0.874999984    0.595240141    0.541499938
0.958333349    0.595240141    0.504288514
0.041666667    0.738097256    0.500821767  0  0  0
0.125000000    0.738097256    0.506652020
0.208333349    0.738097256    0.541489488
0.291666651    0.738097256    0.641310022
0.374999984    0.738097256    0.731146457
0.458333317    0.738097256    0.762881480
0.541666714    0.738097256    0.762881476
0.625000016    0.738097256    0.731146457
0.708333381    0.738097256    0.641309977
0.791666683    0.738097256    0.541489462
0.874999984    0.738097256    0.506652023
0.958333349    0.738097256    0.500821767  0  0  0
0.041666667    0.880954372    0.500064057  0  0  0
0.125000000    0.880954372    0.500381046  0  0  0
0.208333349    0.880954372    0.501838228
0.291666651    0.880954372    0.506649348
0.374999984    0.880954372    0.516470503
0.458333317    0.880954372    0.526159921
0.541666714    0.880954372    0.526159919
0.625000016    0.880954372    0.516470503
0.708333381    0.880954372    0.506649345
0.791666683    0.880954372    0.501838227
0.874999984    0.880954372    0.500381046  0  0  0
0.958333349    0.880954372    0.500064057  0  0  0
0.000000000    0.095240172    0.500038765  0  0  0
0.083333333    0.095240172    0.500262892  0  0  0
0.166666667    0.095240172    0.501497754
0.250000000    0.095240172    0.506651149
0.333333333    0.095240172    0.520757294
0.416666667    0.095240172    0.541483898
0.500000000    0.095240172    0.552018459
0.583333302    0.095240172    0.541483905
0.666666667    0.095240172    0.520757294
0.749999968    0.095240172    0.506651153
0.833333333    0.095240172    0.501497754
0.916666698    0.095240172    0.500262892  0  0  0
0.000000000    0.238097304    0.500381231  0  0  0
0.083333333    0.238097304    0.503456451
0.166666667    0.238097304    0.526175582
0.250000000    0.238097304    0.618884230
0.333333333    0.238097304    0.731161177
0.416666667    0.238097304    0.774100435
0.500000000    0.238097304    0.782540493
0.583333302    0.238097304    0.774100442
0.666666667    0.238097304    0.731161177
0.749999968    0.238097304    0.618884279
0.833333333    0.238097304    0.526175582
0.916666698    0.238097304    0.503456448
0.000000000    0.380954467    0.501498373
0.083333333    0.380954467    0.516482828
0.166666667    0.380954467    0.618898494
0.250000000    0.380954467    0.762899759
0.333333333    0.380954467    0.795830830
0.416666667    0.380954467    0.799560885
0.500000000    0.380954467    0.799938310
0.583333302    0.380954467    0.799560886
0.666666667    0.380954467    0.795830830
0.749999968    0.380954467    0.762899789
0.833333333    0.380954467    0.618898494
0.916666698    0.380954467    0.516482814
0.000000000    0.523811583    0.501839441
0.083333333    0.523811583    0.520766807
0.166666667    0.523811583    0.641342251
0.250000000    0.523811583    0.774106426
0.333333333    0.523811583    0.797706436
0.416666667    0.523811583    0.799938297
0.500000000    0.523811583    0.800125635
0.583333302    0.523811583    0.799938298
0.666666667    0.523811583    0.797706436
0.749999968    0.523811583    0.774106448
0.833333333    0.523811583    0.641342251
0.916666698    0.523811583    0.520766790
0.000000000    0.666668761    0.500676004  0  0  0
0.083333333    0.666668761    0.506652960
0.166666667    0.666668761    0.552032737
0.250000000    0.666668761    0.688444362
0.333333333    0.666668761    0.774099064
0.416666667    0.666668761    0.792940330
0.500000000    0.666668761    0.795828967
0.583333302    0.666668761    0.792940333
0.666666667    0.666668761    0.774099064
0.749999968    0.666668761    0.688444416
0.833333333    0.666668761    0.552032737
0.916666698    0.666668761    0.506652955
0.000000000    0.809525877    0.500090254  0  0  0
0.083333333    0.809525877    0.500675813  0  0  0
0.166666667    0.809525877    0.504286726
0.250000000    0.809525877    0.520756176
0.333333333    0.809525877    0.564879908
0.416666667    0.809525877    0.618849732
0.500000000    0.809525877    0.641291010
0.583333302    0.809525877    0.618849748
0.666666667    0.809525877    0.564879908
0.749999968    0.809525877    0.520756187
0.833333333    0.809525877    0.504286726
0.916666698    0.809525877    0.500675812  0  0  0
0.000000000    0.952383056    0.500005858  0  0  0
0.083333333    0.952383056    0.500032870  0  0  0
0.166666667    0.952383056    0.500152737  0  0  0
0.250000000    0.952383056    0.500556899  0  0  0
0.333333333    0.952383056    0.501497021
0.416666667    0.952383056    0.502791264
0.500000000    0.952383056    0.503453661
0.583333302    0.952383056    0.502791264
0.666666667    0.952383056    0.501497021
0.749999968    0.952383056    0.500556900  0  0  0
0.833333333    0.952383056    0.500152737  0  0  0
0.916666698    0.952383056    0.500032870  0  0  0
0.500000000 0.476188637 0.800169831
