POSCAR
1.00000
 7.7500291     0.0000000     0.0000000
 3.8750141     6.7117223     0.0000000
 3.8750141     2.2372406     6.3278726
Si sisi N VB 
8 6 1 1 
Direct
  0.0000000	  0.0000000	  0.0000000	
  0.5000000	  0.0000000	  0.0000000	
  0.5000000	  0.0000000	  0.5000000	
  0.5000000	  0.5000000	  0.0000000	
  0.1250000	  0.6250000	  0.1250000	
  0.6250000	  0.1250000	  0.1250000	
  0.6250000	  0.6250000	  0.1250000	
  0.6250000	  0.6250000	  0.6250000	
  0.0000000	  0.5000000	  0.0000000	
  0.0000000	  0.5000000	  0.5000000	
  0.1250000	  0.1250000	  0.1250000	
  0.1250000	  0.1250000	  0.6250000	
  0.5000000	  0.5000000	  0.5000000	
  0.6250000	  0.1250000	  0.6250000	
  0.1250000	  0.6250000	  0.6250000	
  0.0000000	  0.0000000	  0.5000000	
