POSCAR
1.00000
11.6250439     0.0000000     0.0000000
 5.8125213    10.0675837     0.0000000
 5.8125213     3.3558610     9.4918090
Si sisi N VB 
46 6 1 1 
Direct
  0.0000000	  0.0000000	  0.0000000	
  0.0000000	  0.0000000	  0.3333333	
  0.0000000	  0.0000000	  0.6666667	
  0.0000000	  0.3333333	  0.0000000	
  0.0000000	  0.3333333	  0.3333333	
  0.0000000	  0.3333333	  0.6666667	
  0.0000000	  0.6666667	  0.0000000	
  0.0000000	  0.6666667	  0.3333333	
  0.0000000	  0.6666667	  0.6666667	
  0.3333333	  0.0000000	  0.0000000	
  0.3333333	  0.0000000	  0.3333333	
  0.3333333	  0.0000000	  0.6666667	
  0.3333333	  0.3333333	  0.0000000	
  0.3333333	  0.6666667	  0.0000000	
  0.3333333	  0.6666667	  0.6666667	
  0.6666667	  0.0000000	  0.0000000	
  0.6666667	  0.0000000	  0.3333333	
  0.6666667	  0.0000000	  0.6666667	
  0.6666667	  0.3333333	  0.0000000	
  0.6666667	  0.3333333	  0.6666667	
  0.6666667	  0.6666667	  0.0000000	
  0.6666667	  0.6666667	  0.3333333	
  0.6666667	  0.6666667	  0.6666667	
  0.0833333	  0.0833333	  0.0833333	
  0.0833333	  0.0833333	  0.4166667	
  0.0833333	  0.0833333	  0.7500000	
  0.0833333	  0.4166667	  0.0833333	
  0.0833333	  0.4166667	  0.4166667	
  0.0833333	  0.4166667	  0.7500000	
  0.0833333	  0.7500000	  0.0833333	
  0.0833333	  0.7500000	  0.7500000	
  0.4166667	  0.0833333	  0.0833333	
  0.4166667	  0.0833333	  0.4166667	
  0.4166667	  0.0833333	  0.7500000	
  0.4166667	  0.4166667	  0.0833333	
  0.4166667	  0.4166667	  0.7500000	
  0.4166667	  0.7500000	  0.7500000	
  0.7500000	  0.0833333	  0.0833333	
  0.7500000	  0.0833333	  0.4166667	
  0.7500000	  0.0833333	  0.7500000	
  0.7500000	  0.4166667	  0.0833333	
  0.7500000	  0.4166667	  0.4166667	
  0.7500000	  0.4166667	  0.7500000	
  0.7500000	  0.7500000	  0.0833333	
  0.7500000	  0.7500000	  0.4166667	
  0.7500000	  0.7500000	  0.7500000	
  0.0833333	  0.7500000	  0.4166667	
  0.3333333	  0.3333333	  0.3333333	
  0.3333333	  0.3333333	  0.6666667	
  0.4166667	  0.7500000	  0.0833333	
  0.4166667	  0.7500000	  0.4166667	
  0.6666667	  0.3333333	  0.3333333	
  0.4166667	  0.4166667	  0.4166667	
  0.3333333	  0.6666667	  0.3333333	
