POSCAR
1.00000
 5.0280628     0.0000000     0.0000000
 0.0000000     8.6994352     0.0000000
 0.0000000     0.0000000    15.0000000
B N bb nn VB 
5 6 2 2 1 
Direct
  0.0000000	  0.1666027	  0.5000000	       0.00	       0.00	
  0.0000000	  0.6666027	  0.5000000	       0.00	       0.00	       0.00	
  0.5000000	  0.1666027	  0.5000000	
  0.2500000	  0.4166027	  0.5000000	
  0.7500000	  0.4166027	  0.5000000	
  0.0000000	  0.3333973	  0.5000000	
  0.0000000	  0.8333973	  0.5000000	
  0.5000000	  0.3333973	  0.5000000	
  0.2500000	  0.0833973	  0.5000000	
  0.7500000	  0.0833973	  0.5000000	
  0.2500000	  0.9166027	  0.5000000	
  0.7500000	  0.9166027	  0.5000000	
  0.2500000	  0.5833973	  0.5000000	
  0.7500000	  0.5833973	  0.5000000	
  0.5000000	  0.6666027	  0.5000000	
  0.5000000	  0.8333973	  0.5000000	
