POSCAR
1.00000
 7.5420942     0.0000000     0.0000000
 0.0000000    13.0491533     0.0000000
 0.0000000     0.0000000    15.0000000
B N bb nn VB 
15 16 2 2 1 
Direct
  0.0000000	  0.1110685	  0.5000000	
  0.0000000	  0.7777352	  0.5000000	
  0.3333333	  0.1110685	  0.5000000	
  0.3333333	  0.7777352	  0.5000000	
  0.6666667	  0.1110685	  0.5000000	
  0.6666667	  0.4444018	  0.5000000	
  0.6666667	  0.7777352	  0.5000000	
  0.1666667	  0.6110685	  0.5000000	
  0.1666667	  0.9444018	  0.5000000	
  0.5000000	  0.2777351	  0.5000000	
  0.5000000	  0.6110685	  0.5000000	
  0.5000000	  0.9444018	  0.5000000	
  0.8333333	  0.2777351	  0.5000000	
  0.8333333	  0.6110685	  0.5000000	
  0.8333333	  0.9444018	  0.5000000	
  0.0000000	  0.2222649	  0.5000000	
  0.0000000	  0.5555982	  0.5000000	
  0.0000000	  0.8889315	  0.5000000	
  0.3333333	  0.2222649	  0.5000000	
  0.3333333	  0.8889315	  0.5000000	
  0.6666667	  0.2222649	  0.5000000	
  0.6666667	  0.5555982	  0.5000000	
  0.6666667	  0.8889315	  0.5000000	
  0.1666667	  0.0555982	  0.5000000	
  0.1666667	  0.7222648	  0.5000000	
  0.5000000	  0.0555982	  0.5000000	
  0.5000000	  0.7222648	  0.5000000	
  0.8333333	  0.0555982	  0.5000000	
  0.8333333	  0.3889315	  0.5000000	
  0.8333333	  0.7222648	  0.5000000	
  0.0000000	  0.4444018	  0.5000000	
  0.1666667	  0.2777351	  0.5000000	
  0.3333333	  0.5555982	  0.5000000	
  0.5000000	  0.3889315	  0.5000000	
  0.3333333	  0.4444018	  0.5000000	
  0.1666667	  0.3889315	  0.5000000	
