POSCAR
1.00000
15.5000582     0.0000000     0.0000000
 7.7500282    13.4234447     0.0000000
 7.7500282     4.4744812    12.6557451
Si sisi N VB 
120 6 1 1 
Direct
  0.0000000	  0.0000000	  0.0000000	
 -0.0000000	 -0.0000000	  0.5000000	
 -0.0000000	  0.5000000	  0.0000000	
 -0.0000000	  0.5000000	  0.5000000	
  0.5000000	  0.0000000	  0.0000000	
  0.5000000	 -0.0000000	  0.5000000	
  0.5000000	  0.5000000	  0.0000000	
 -0.0000000	 -0.0000000	  0.2500000	
 -0.0000000	 -0.0000000	  0.7500000	
 -0.0000000	  0.5000000	  0.2500000	
  0.0000000	  0.5000000	  0.7500000	
  0.5000000	 -0.0000000	  0.2500000	
  0.5000000	 -0.0000000	  0.7500000	
  0.5000000	  0.5000000	  0.2500000	
  0.5000000	  0.5000000	  0.7500000	
 -0.0000000	  0.2500000	  0.0000000	
 -0.0000000	  0.2500000	  0.5000000	
  0.0000000	  0.7500000	  0.0000000	
  0.0000000	  0.7500000	  0.5000000	
  0.5000000	  0.2500000	  0.0000000	
  0.5000000	  0.2500000	  0.5000000	
  0.5000000	  0.7500000	  0.0000000	
  0.4999999	  0.7500000	  0.5000000	
 -0.0000000	  0.2500000	  0.2500000	
  0.0000000	  0.2500000	  0.7500000	
  0.0000000	  0.7499999	  0.2500000	
 -0.0000000	  0.7500000	  0.7500000	
  0.5000000	  0.2500000	  0.2500000	
  0.5000000	  0.2500000	  0.7500000	
  0.5000000	  0.7499999	  0.2500000	
  0.5000000	  0.7500000	  0.7500000	
  0.2500000	  0.0000000	  0.0000000	
  0.2500000	 -0.0000000	  0.5000000	
  0.2500000	  0.5000000	  0.0000000	
  0.7500000	  0.0000000	  0.0000000	
  0.7500000	 -0.0000000	  0.5000000	
  0.7500000	  0.5000000	  0.0000000	
  0.7500000	  0.5000000	  0.5000000	
  0.2500000	 -0.0000000	  0.2500000	
  0.2500000	 -0.0000000	  0.7500000	
  0.2500000	  0.5000000	  0.2500000	
  0.7500000	 -0.0000000	  0.2500000	
  0.7500000	 -0.0000000	  0.7500000	
  0.7500000	  0.5000000	  0.2500000	
  0.7500001	  0.5000000	  0.7500000	
  0.2500000	  0.2500000	  0.0000000	
  0.2500000	  0.2500000	  0.5000000	
  0.2500000	  0.7500000	  0.0000000	
  0.7500000	  0.2500000	  0.0000000	
  0.7500000	  0.2500000	  0.5000000	
  0.7500000	  0.7500000	  0.0000000	
  0.7500000	  0.7500000	  0.5000000	
  0.2500000	  0.2500000	  0.2500000	
  0.2500000	  0.2500000	  0.7500000	
  0.2500000	  0.7499999	  0.2500000	
  0.2500000	  0.7500000	  0.7500000	
  0.7500000	  0.2500000	  0.2500000	
  0.7500000	  0.2500000	  0.7500000	
  0.7500001	  0.7499999	  0.2500000	
  0.7500000	  0.7500000	  0.7500000	
  0.0625000	  0.0625000	  0.0625000	
  0.0625000	  0.0625000	  0.5625000	
  0.0625000	  0.5625000	  0.0625000	
  0.0625000	  0.5625000	  0.5625000	
  0.5625000	  0.0625000	  0.0625000	
  0.5625000	  0.0625000	  0.5625000	
  0.5624999	  0.5625000	  0.0625000	
  0.0625000	  0.0625000	  0.3125000	
  0.0625000	  0.0625000	  0.8125000	
  0.0625000	  0.5625000	  0.3125000	
  0.0625000	  0.5625000	  0.8125000	
  0.5625000	  0.0625000	  0.3125000	
  0.5625000	  0.0625000	  0.8125000	
  0.5624999	  0.5625000	  0.8125000	
  0.0625000	  0.3125000	  0.0625000	
  0.0625000	  0.3125000	  0.5625000	
  0.0625000	  0.8125000	  0.0625000	
  0.0625000	  0.8124999	  0.5625000	
  0.5625000	  0.3125000	  0.0625000	
  0.5625000	  0.8125000	  0.0625000	
  0.5625000	  0.8124999	  0.5625000	
  0.0625000	  0.3125000	  0.3125000	
  0.0625000	  0.3125000	  0.8125000	
  0.0625000	  0.8125000	  0.3125000	
  0.0625000	  0.8125000	  0.8125000	
  0.5624999	  0.3125000	  0.3125000	
  0.5625000	  0.3125000	  0.8125000	
  0.5625000	  0.8125000	  0.3125000	
  0.5625000	  0.8125000	  0.8125000	
  0.3125000	  0.0625000	  0.0625000	
  0.3125000	  0.0625000	  0.5625000	
  0.3125000	  0.5625000	  0.0625000	
  0.8125000	  0.0625000	  0.0625000	
  0.8125000	  0.0625000	  0.5625000	
  0.8125000	  0.5625000	  0.0625000	
  0.8124999	  0.5625000	  0.5625000	
  0.3125000	  0.0625000	  0.3125000	
  0.3125000	  0.0625000	  0.8125000	
  0.3125000	  0.5625000	  0.3125000	
  0.3125000	  0.5625000	  0.8125000	
  0.8125000	  0.0625000	  0.3125000	
  0.8125000	  0.0625000	  0.8125000	
  0.8125000	  0.5625000	  0.3125000	
  0.8125000	  0.5625000	  0.8125000	
  0.3125000	  0.3125000	  0.0625000	
  0.3124999	  0.3125000	  0.5625000	
  0.3125000	  0.8125000	  0.0625000	
  0.3125000	  0.8124999	  0.5625000	
  0.8125000	  0.3125000	  0.0625000	
  0.8125000	  0.3125000	  0.5625000	
  0.8125000	  0.8125000	  0.0625000	
  0.8125000	  0.8124999	  0.5625000	
  0.3125000	  0.3125000	  0.3125000	
  0.3125000	  0.3125000	  0.8125000	
  0.3125000	  0.8125000	  0.3125000	
  0.3125001	  0.8125000	  0.8125000	
  0.8125000	  0.3125000	  0.3125000	
  0.8125001	  0.3125000	  0.8125000	
  0.8125001	  0.8125000	  0.3125000	
  0.8125000	  0.8125000	  0.8125000	
  0.2500000	  0.7500000	  0.5000000	
  0.2500000	  0.5000000	  0.7500000	
  0.2500000	  0.5000000	  0.5000000	
  0.5624999	  0.5625000	  0.5625000	
  0.5624999	  0.5625000	  0.3125000	
  0.5625000	  0.3125000	  0.5625000	
  0.5000000	  0.5000000	  0.5000000	
  0.3125000	  0.5625000	  0.5625000	
