Sr6 Ti6 O18
1.0
3.936155 0.000000 0.000000
0.000000 7.872311 0.000000
0.000000 0.000000 11.808466
Sr Ti O
6 6 18
direct
0.000000 0.000000 0.000000 Sr
0.000000 0.000000 0.333333 Sr
0.000000 0.000000 0.666667 Sr
0.000000 0.500000 0.000000 Sr
0.000000 0.500000 0.333333 Sr
0.000000 0.500000 0.666667 Sr
0.500000 0.250000 0.166667 Ti
0.500000 0.250000 0.500000 Ti
0.500000 0.250000 0.833333 Ti
0.500000 0.750000 0.166667 Ti
0.500000 0.750000 0.500000 Ti
0.500000 0.750000 0.833333 Ti
0.500000 0.250000 0.000000 O
0.500000 0.250000 0.333333 O
0.500000 0.250000 0.666667 O
0.500000 0.750000 0.000000 O
0.500000 0.750000 0.333333 O
0.500000 0.750000 0.666667 O
0.500000 0.000000 0.166667 O
0.500000 0.000000 0.500000 O
0.500000 0.000000 0.833333 O
0.500000 0.500000 0.166667 O
0.500000 0.500000 0.500000 O
0.500000 0.500000 0.833333 O
0.000000 0.250000 0.166667 O
0.000000 0.250000 0.500000 O
0.000000 0.250000 0.833333 O
0.000000 0.750000 0.166667 O
0.000000 0.750000 0.500000 O
0.000000 0.750000 0.833333 O
