POSCAR
1.00000
27.0349056     0.0000000     0.0000000
 0.0000000    27.3166758     0.0000000
 0.0000000     0.0000000     9.9995365
B N n 
167 165 3 
Direct
0.041666667    0.119045431    0.500060264  0  0  0
0.125000000    0.119045431    0.500342437
0.208333349    0.119045431    0.501374672
0.291666651    0.119045431    0.503898630
0.374999984    0.119045431    0.507811257
0.458333317    0.119045431    0.511056696
0.541666714    0.119045431    0.511056696
0.625000016    0.119045431    0.507811257
0.708333381    0.119045431    0.503898629
0.791666683    0.119045431    0.501374671
0.874999984    0.119045431    0.500342438
0.958333349    0.119045431    0.500060264  0  0  0
0.041666667    0.261902571    0.500484834  0  0  0
0.125000000    0.261902571    0.502754961
0.208333349    0.261902571    0.511059442
0.291666651    0.261902571    0.531365073
0.374999984    0.261902571    0.562842749
0.458333317    0.261902571    0.588952800
0.541666714    0.261902571    0.588952794
0.625000016    0.261902571    0.562842749
0.708333381    0.261902571    0.531365063
0.791666683    0.261902571    0.511059437
0.874999984    0.261902571    0.502754962
0.958333349    0.261902571    0.500484834  0  0  0
0.041666667    0.404759734    0.501375185  0  0  0
0.125000000    0.404759734    0.507814175
0.208333349    0.404759734    0.531369018
0.291666651    0.404759734    0.588963943
0.374999984    0.404759734    0.678247273
0.458333317    0.404759734    0.752305863
0.541666714    0.404759734    0.752305847
0.625000016    0.404759734    0.678247273
0.708333381    0.404759734    0.588963913
0.791666683    0.404759734    0.531369004
0.874999984    0.404759734    0.507814178
0.958333349    0.404759734    0.501375184  0  0  0
0.041666667    0.547616850    0.501375188  0  0  0
0.125000000    0.547616850    0.507814195
0.208333349    0.547616850    0.531369097
0.291666651    0.547616850    0.588964167
0.374999984    0.547616850    0.678247721
0.458333317    0.547616850    0.752306498
0.541666714    0.547616850    0.752306482
0.625000016    0.547616850    0.678247721
0.708333381    0.547616850    0.588964137
0.791666683    0.547616850    0.531369083
0.874999984    0.547616850    0.507814197
0.958333349    0.547616850    0.501375188  0  0  0
0.041666667    0.690474028    0.500484838  0  0  0
0.125000000    0.690474028    0.502754981
0.208333349    0.690474028    0.511059524
0.291666651    0.690474028    0.531365305
0.374999984    0.690474028    0.562843213
0.458333317    0.690474028    0.588953457
0.541666714    0.690474028    0.588953452
0.625000016    0.690474028    0.562843213
0.708333381    0.690474028    0.531365294
0.791666683    0.690474028    0.511059518
0.874999984    0.690474028    0.502754982
0.958333349    0.690474028    0.500484838  0  0  0
0.041666667    0.833331144    0.500060265  0  0  0
0.125000000    0.833331144    0.500342442
0.208333349    0.833331144    0.501374689
0.291666651    0.833331144    0.503898680
0.374999984    0.833331144    0.507811357
0.458333317    0.833331144    0.511056837
0.541666714    0.833331144    0.511056837
0.625000016    0.833331144    0.507811357
0.708333381    0.833331144    0.503898679
0.791666683    0.833331144    0.501374689
0.874999984    0.833331144    0.500342442
0.958333349    0.833331144    0.500060265  0  0  0
0.041666667    0.976188323    0.500002641  0  0  0
0.125000000    0.976188323    0.500015007  0  0  0
0.208333349    0.976188323    0.500060243  0  0  0
0.291666651    0.976188323    0.500170851  0  0  0
0.374999984    0.976188323    0.500342316  0  0  0
0.458333317    0.976188323    0.500484543  0  0  0
0.541666714    0.976188323    0.500484543  0  0  0
0.625000016    0.976188323    0.500342316  0  0  0
0.708333381    0.976188323    0.500170851  0  0  0
0.791666683    0.976188323    0.500060243  0  0  0
0.874999984    0.976188323    0.500015007  0  0  0
0.958333349    0.976188323    0.500002641  0  0  0
0.000000000    0.047617187    0.500005292  0  0  0
0.083333333    0.047617187    0.500035779  0  0  0
0.166666667    0.047617187    0.500170884  0  0  0
0.250000000    0.047617187    0.500576590  0  0  0
0.333333333    0.047617187    0.501374447  0  0  0
0.416666667    0.047617187    0.502314647  0  0  0
0.500000000    0.047617187    0.502753829  0  0  0
0.583333302    0.047617187    0.502314647  0  0  0
0.666666667    0.047617187    0.501374447  0  0  0
0.749999968    0.047617187    0.500576590  0  0  0
0.833333333    0.047617187    0.500170884  0  0  0
0.916666698    0.047617187    0.500035779  0  0  0
0.000000000    0.190474327    0.500071709  0  0  0
0.083333333    0.190474327    0.500484784  0  0  0
0.166666667    0.190474327    0.502315358
0.250000000    0.190474327    0.507812384
0.333333333    0.190474327    0.518622784
0.416666667    0.190474327    0.531361819
0.500000000    0.190474327    0.537312423
0.583333302    0.190474327    0.531361823
0.666666667    0.190474327    0.518622784
0.749999968    0.190474327    0.507812387
0.833333333    0.190474327    0.502315358
0.916666698    0.190474327    0.500484784  0  0  0
0.000000000    0.333331490    0.500342550  0  0  0
0.083333333    0.333331490    0.502315785  0  0  0
0.166666667    0.333331490    0.511060330
0.250000000    0.333331490    0.537319306
0.333333333    0.333331490    0.588959967
0.416666667    0.333331490    0.649813603
0.500000000    0.333331490    0.678239296
0.583333302    0.333331490    0.649813622
0.666666667    0.333331490    0.588959967
0.749999968    0.333331490    0.537319321
0.833333333    0.333331490    0.511060330
0.916666698    0.333331490    0.502315783  0  0  0
0.000000000    0.476188637    0.500576909  0  0  0
0.083333333    0.476188637    0.503900152  0  0  0
0.166666667    0.476188637    0.518627364
0.250000000    0.476188637    0.562851676
0.333333333    0.476188637    0.649822802
0.416666667    0.476188637    0.752310049
0.583333302    0.476188637    0.752310081
0.666666667    0.476188637    0.649822802
0.749999968    0.476188637    0.562851701
0.833333333    0.476188637    0.518627364
0.916666698    0.476188637    0.503900149  0  0  0
0.000000000    0.619045785    0.500342550  0  0  0
0.083333333    0.619045785    0.502315785  0  0  0
0.166666667    0.619045785    0.511060330
0.250000000    0.619045785    0.537319306
0.333333333    0.619045785    0.588959967
0.416666667    0.619045785    0.649813602
0.500000000    0.619045785    0.678239295
0.583333302    0.619045785    0.649813621
0.666666667    0.619045785    0.588959967
0.749999968    0.619045785    0.537319321
0.833333333    0.619045785    0.511060330
0.916666698    0.619045785    0.502315783  0  0  0
0.000000000    0.761902901    0.500071709  0  0  0
0.083333333    0.761902901    0.500484784  0  0  0
0.166666667    0.761902901    0.502315359
0.250000000    0.761902901    0.507812389
0.333333333    0.761902901    0.518622797
0.416666667    0.761902901    0.531361840
0.500000000    0.761902901    0.537312449
0.583333302    0.761902901    0.531361844
0.666666667    0.761902901    0.518622797
0.749999968    0.761902901    0.507812392
0.833333333    0.761902901    0.502315359
0.916666698    0.761902901    0.500484784  0  0  0
0.000000000    0.904760079    0.500005292  0  0  0
0.083333333    0.904760079    0.500035779  0  0  0
0.166666667    0.904760079    0.500170884  0  0  0
0.250000000    0.904760079    0.500576590  0  0  0
0.333333333    0.904760079    0.501374448  0  0  0
0.416666667    0.904760079    0.502314647  0  0  0
0.500000000    0.904760079    0.502753830  0  0  0
0.583333302    0.904760079    0.502314648  0  0  0
0.666666667    0.904760079    0.501374448  0  0  0
0.749999968    0.904760079    0.500576590  0  0  0
0.833333333    0.904760079    0.500170884  0  0  0
0.916666698    0.904760079    0.500035779  0  0  0
0.041666667    0.023811498    0.500008412  0  0  0
0.125000000    0.023811498    0.500047797  0  0  0
0.208333349    0.023811498    0.500191873  0  0  0
0.291666651    0.023811498    0.500544161  0  0  0
0.374999984    0.023811498    0.501090275  0  0  0
0.458333317    0.023811498    0.501543266  0  0  0
0.541666714    0.023811498    0.501543265  0  0  0
0.625000016    0.023811498    0.501090275  0  0  0
0.708333381    0.023811498    0.500544161  0  0  0
0.791666683    0.023811498    0.500191873  0  0  0
0.874999984    0.023811498    0.500047797  0  0  0
0.958333349    0.023811498    0.500008412  0  0  0
0.041666667    0.166668651    0.500135594  0  0  0
0.125000000    0.166668651    0.500770481
0.208333349    0.166668651    0.503092999
0.291666651    0.166668651    0.508771884
0.374999984    0.166668651    0.517575259
0.458333317    0.166668651    0.524877468
0.541666714    0.166668651    0.524877467
0.625000016    0.166668651    0.517575259
0.708333381    0.166668651    0.508771881
0.791666683    0.166668651    0.503092997
0.874999984    0.166668651    0.500770481
0.958333349    0.166668651    0.500135594  0  0  0
0.041666667    0.309525783    0.500770617  0  0  0
0.125000000    0.309525783    0.504378857
0.208333349    0.309525783    0.517578369
0.291666651    0.309525783    0.549853042
0.374999984    0.309525783    0.599885059
0.458333317    0.309525783    0.641385536
0.541666714    0.309525783    0.641385526
0.625000016    0.309525783    0.599885059
0.708333381    0.309525783    0.549853025
0.791666683    0.309525783    0.517578360
0.874999984    0.309525783    0.504378859
0.958333349    0.309525783    0.500770617  0  0  0
0.041666667    0.452382930    0.501544084  0  0  0
0.125000000    0.452382930    0.508773908
0.208333349    0.452382930    0.535221745
0.291666651    0.452382930    0.599890448
0.374999984    0.452382930    0.700139510
0.625000016    0.452382930    0.700139510
0.708333381    0.452382930    0.599890415
0.791666683    0.452382930    0.535221729
0.874999984    0.452382930    0.508773911
0.958333349    0.452382930    0.501544084  0  0  0
0.041666667    0.595240141    0.501090778  0  0  0
0.125000000    0.595240141    0.506198101
0.208333349    0.595240141    0.524881491
0.291666651    0.595240141    0.570565024
0.374999984    0.595240141    0.641383381
0.458333317    0.595240141    0.700125677
0.541666714    0.595240141    0.700125664
0.625000016    0.595240141    0.641383381
0.708333381    0.595240141    0.570565000
0.791666683    0.595240141    0.524881479
0.874999984    0.595240141    0.506198102
0.958333349    0.595240141    0.501090778  0  0  0
0.041666667    0.738097256    0.500271666  0  0  0
0.125000000    0.738097256    0.501543682
0.208333349    0.738097256    0.506196914
0.291666651    0.738097256    0.517574727
0.374999984    0.738097256    0.535212548
0.458333317    0.738097256    0.549842739
0.541666714    0.738097256    0.549842736
0.625000016    0.738097256    0.535212548
0.708333381    0.738097256    0.517574721
0.791666683    0.738097256    0.506196911
0.874999984    0.738097256    0.501543682
0.958333349    0.738097256    0.500271666  0  0  0
0.041666667    0.880954372    0.500023854  0  0  0
0.125000000    0.880954372    0.500135547
0.208333349    0.880954372    0.500544137
0.291666651    0.880954372    0.501543197
0.374999984    0.880954372    0.503091933
0.458333317    0.880954372    0.504376577
0.541666714    0.880954372    0.504376577
0.625000016    0.880954372    0.503091933
0.708333381    0.880954372    0.501543196
0.791666683    0.880954372    0.500544137
0.874999984    0.880954372    0.500135547
0.958333349    0.880954372    0.500023854  0  0  0
0.000000000    0.095240172    0.500014168  0  0  0
0.083333333    0.095240172    0.500095781  0  0  0
0.166666667    0.095240172    0.500457454  0  0  0
0.250000000    0.095240172    0.501543524  0  0  0
0.333333333    0.095240172    0.503679377  0  0  0
0.416666667    0.095240172    0.506196279  0  0  0
0.500000000    0.095240172    0.507371963  0  0  0
0.583333302    0.095240172    0.506196279  0  0  0
0.666666667    0.095240172    0.503679377  0  0  0
0.749999968    0.095240172    0.501543524  0  0  0
0.833333333    0.095240172    0.500457454  0  0  0
0.916666698    0.095240172    0.500095781  0  0  0
0.000000000    0.238097304    0.500135608  0  0  0
0.083333333    0.238097304    0.500916768  0  0  0
0.166666667    0.238097304    0.504378542
0.250000000    0.238097304    0.514773896
0.333333333    0.238097304    0.535217302
0.416666667    0.238097304    0.559307923
0.500000000    0.238097304    0.570561032
0.583333302    0.238097304    0.559307930
0.666666667    0.238097304    0.535217302
0.749999968    0.238097304    0.514773902
0.833333333    0.238097304    0.504378542
0.916666698    0.238097304    0.500916768  0  0  0
0.000000000    0.380954467    0.500457615  0  0  0
0.083333333    0.380954467    0.503093677  0  0  0
0.166666667    0.380954467    0.514775592
0.250000000    0.380954467    0.549855188
0.333333333    0.380954467    0.618842400
0.416666667    0.380954467    0.700137305
0.500000000    0.380954467    0.738111438
0.583333302    0.380954467    0.700137331
0.666666667    0.380954467    0.618842400
0.749999968    0.380954467    0.549855208
0.833333333    0.380954467    0.514775592
0.916666698    0.380954467    0.503093675  0  0  0
0.000000000    0.523811583    0.500544439  0  0  0
0.083333333    0.523811583    0.503680643  0  0  0
0.166666667    0.523811583    0.517578976
0.250000000    0.523811583    0.559314250
0.333333333    0.523811583    0.641390457
0.416666667    0.523811583    0.738109504
0.583333302    0.523811583    0.738109535
0.666666667    0.523811583    0.641390457
0.749999968    0.523811583    0.559314274
0.833333333    0.523811583    0.517578976
0.916666698    0.523811583    0.503680640  0  0  0
0.000000000    0.666668761    0.500228366  0  0  0
0.083333333    0.666668761    0.501543852  0  0  0
0.166666667    0.666668761    0.507373532
0.250000000    0.666668761    0.524879467
0.333333333    0.666668761    0.559306476
0.416666667    0.666668761    0.599875450
0.500000000    0.666668761    0.618825858
0.583333302    0.666668761    0.599875463
0.666666667    0.666668761    0.559306476
0.749999968    0.666668761    0.524879476
0.833333333    0.666668761    0.507373532
0.916666698    0.666668761    0.501543851  0  0  0
0.000000000    0.809525877    0.500033771  0  0  0
0.083333333    0.809525877    0.500228308  0  0  0
0.166666667    0.809525877    0.501090414
0.250000000    0.809525877    0.503679228
0.333333333    0.809525877    0.508770368
0.416666667    0.809525877    0.514769794
0.500000000    0.809525877    0.517572220
0.583333302    0.809525877    0.514769796
0.666666667    0.809525877    0.508770368
0.749999968    0.809525877    0.503679230
0.833333333    0.809525877    0.501090414
0.916666698    0.809525877    0.500228308  0  0  0
0.000000000    0.952383056    0.500001761  0  0  0
0.083333333    0.952383056    0.500011903  0  0  0
0.166666667    0.952383056    0.500056851  0  0  0
0.250000000    0.952383056    0.500191825  0  0  0
0.333333333    0.952383056    0.500457263  0  0  0
0.416666667    0.952383056    0.500770057  0  0  0
0.500000000    0.952383056    0.500916168  0  0  0
0.583333302    0.952383056    0.500770057  0  0  0
0.666666667    0.952383056    0.500457263  0  0  0
0.749999968    0.952383056    0.500191825  0  0  0
0.833333333    0.952383056    0.500056851  0  0  0
0.916666698    0.952383056    0.500011903  0  0  0
0.500000000    0.523811583    0.783288497
0.541666714    0.452382930    0.783293920
0.458333317    0.452382930    0.783293938
