POSCAR
1.00000
30.0387840     0.0000000     0.0000000
 0.0000000    30.3518620     0.0000000
 0.0000000     0.0000000    11.6595365
B N 
37 42 
Direct
0.374999984    0.261902571    0.777199966
0.458333317    0.261902571    0.790267755
0.541666714    0.261902571    0.790267754
0.625000016    0.261902571    0.777199966
0.291666651    0.404759734    0.790271025
0.374999984    0.404759734    0.799146050
0.458333317    0.404759734    0.800016967
0.541666714    0.404759734    0.800016967
0.625000016    0.404759734    0.799146050
0.708333381    0.404759734    0.790271016
0.291666651    0.547616850    0.790271091
0.374999984    0.547616850    0.799146061
0.458333317    0.547616850    0.800016970
0.541666714    0.547616850    0.800016970
0.625000016    0.547616850    0.799146061
0.708333381    0.547616850    0.790271082
0.374999984    0.690474028    0.777200343
0.458333317    0.690474028    0.790267948
0.541666714    0.690474028    0.790267947
0.625000016    0.690474028    0.777200343
0.333333333    0.333331490    0.790269858
0.416666667    0.333331490    0.798160990
0.500000000    0.333331490    0.799145858
0.583333302    0.333331490    0.798160991
0.666666667    0.333331490    0.790269858
0.250000000    0.476188637    0.777207205
0.333333333    0.476188637    0.798161435
0.416666667    0.476188637    0.800016987
0.500000000    0.476188637    0.800169831
0.583333302    0.476188637    0.800016987
0.666666667    0.476188637    0.798161435
0.749999968    0.476188637    0.777207225
0.333333333    0.619045785    0.790269858
0.416666667    0.619045785    0.798160990
0.500000000    0.619045785    0.799145857
0.583333302    0.619045785    0.798160991
0.666666667    0.619045785    0.790269858
0.291666651    0.309525783    0.762896608
0.374999984    0.309525783    0.792942277
0.458333317    0.309525783    0.797706140
0.541666714    0.309525783    0.797706140
0.625000016    0.309525783    0.792942277
0.708333381    0.309525783    0.762896584
0.291666651    0.452382930    0.792943368
0.374999984    0.452382930    0.799560918
0.458333317    0.452382930    0.800125649
0.541666714    0.452382930    0.800125649
0.625000016    0.452382930    0.799560918
0.708333381    0.452382930    0.792943361
0.291666651    0.595240141    0.782542838
0.374999984    0.595240141    0.797706011
0.458333317    0.595240141    0.799560715
0.541666714    0.595240141    0.799560715
0.625000016    0.595240141    0.797706011
0.708333381    0.595240141    0.782542824
0.458333317    0.738097256    0.762881480
0.541666714    0.738097256    0.762881476
0.416666667    0.238097304    0.774100435
0.500000000    0.238097304    0.782540493
0.583333302    0.238097304    0.774100442
0.250000000    0.380954467    0.762899759
0.333333333    0.380954467    0.795830830
0.416666667    0.380954467    0.799560885
0.500000000    0.380954467    0.799938310
0.583333302    0.380954467    0.799560886
0.666666667    0.380954467    0.795830830
0.749999968    0.380954467    0.762899789
0.250000000    0.523811583    0.774106426
0.333333333    0.523811583    0.797706436
0.416666667    0.523811583    0.799938297
0.500000000    0.523811583    0.800125635
0.583333302    0.523811583    0.799938298
0.666666667    0.523811583    0.797706436
0.749999968    0.523811583    0.774106448
0.333333333    0.666668761    0.774099064
0.416666667    0.666668761    0.792940330
0.500000000    0.666668761    0.795828967
0.583333302    0.666668761    0.792940333
0.666666667    0.666668761    0.774099064
