POSCAR
1.0000000       
30.0387840000   0.0000000000    0.0000000000    
0.0000000000    30.3518620000   0.0000000000    
0.0000000000    0.0000000000    11.6595365000   
B  N  n  
167  165  3  
Direct 
0.0416666670    0.1190454310    0.5001621600    
0.1250000000    0.1190454310    0.5010700380    
0.2083333490    0.1190454310    0.5057384100    
0.2916666510    0.1190454310    0.5224219580    
0.3749999840    0.1190454310    0.5560321140    
0.4583333170    0.1190454310    0.5860310380    
0.5416667140    0.1190454310    0.5860310320    
0.6250000160    0.1190454310    0.5560321140    
0.7083333810    0.1190454310    0.5224219480    
0.7916666830    0.1190454310    0.5057384070    
0.8749999840    0.1190454310    0.5010700380    
0.9583333490    0.1190454310    0.5001621600    
0.0416666670    0.2619025710    0.5016036840    
0.1250000000    0.2619025710    0.5141368240    
0.2083333490    0.2619025710    0.5860562240    
0.2916666510    0.2619025710    0.7179190280    
0.3749999840    0.2619025710    0.7771999660    
0.4581480850    0.2612604960    0.7936513700    
0.5418519780    0.2612605210    0.7936513920    
0.6250000160    0.2619025710    0.7771999660    
0.7083333810    0.2619025710    0.7179189880    
0.7916666830    0.2619025710    0.5860561770    
0.8749999840    0.2619025710    0.5141368300    
0.9583333490    0.2619025710    0.5016036830    
0.0416666670    0.4047597340    0.5057411290    
0.1250000000    0.4047597340    0.5560588770    
0.2083333490    0.4047597340    0.7179340350    
0.2903224140    0.4041780620    0.7960228200    
0.3736193210    0.4039567650    0.8264017840    
0.4580629010    0.4042466980    0.8378089300    
0.5419372140    0.4042469400    0.8378088440    
0.6263804840    0.4039564850    0.8264018110    
0.7096773420    0.4041776660    0.7960228490    
0.7916666830    0.4047597340    0.7179339790    
0.8749999840    0.4047597340    0.5560588990    
0.9583333490    0.4047597340    0.5057411260    
0.0416666670    0.5476168500    0.5057411470    
0.1250000000    0.5476168500    0.5560590580    
0.2083333490    0.5476168500    0.7179343360    
0.2910334230    0.5477373710    0.7936853680    
0.3741810130    0.5480606660    0.8246847930    
0.4580615140    0.5480553670    0.8379529490    
0.5419379890    0.5480550900    0.8379526890    
0.6258181710    0.5480599110    0.8246842970    
0.7089666050    0.5477372480    0.7936853750    
0.7916666830    0.5476168500    0.7179342800    
0.8749999840    0.5476168500    0.5560590790    
0.9583333490    0.5476168500    0.5057411440    
0.0416666670    0.6904740280    0.5016036980    
0.1250000000    0.6904740280    0.5141369620    
0.2083333490    0.6904740280    0.5860569740    
0.2916666510    0.6904740280    0.7179199090    
0.3749999840    0.6904740280    0.7772003430    
0.4581598370    0.6918702280    0.7960237920    
0.5418391820    0.6918703060    0.7960238400    
0.6250000160    0.6904740280    0.7772003430    
0.7083333810    0.6904740280    0.7179198690    
0.7916666830    0.6904740280    0.5860569260    
0.8749999840    0.6904740280    0.5141369680    
0.9583333490    0.6904740280    0.5016036970    
0.0416666670    0.8333311440    0.5001621620    
0.1250000000    0.8333311440    0.5010700540    
0.2083333490    0.8333311440    0.5057385030    
0.2916666510    0.8333311440    0.5224223390    
0.3749999840    0.8333311440    0.5560330280    
0.4583333170    0.8333311440    0.5860323320    
0.5416667140    0.8333311440    0.5860323250    
0.6250000160    0.8333311440    0.5560330280    
0.7083333810    0.8333311440    0.5224223290    
0.7916666830    0.8333311440    0.5057385000    
0.8749999840    0.8333311440    0.5010700540    
0.9583333490    0.8333311440    0.5001621620    
0.0416666670    0.9761883230    0.5000083450    
0.1250000000    0.9761883230    0.5000409490    
0.2083333490    0.9761883230    0.5001621010    
0.2916666510    0.9761883230    0.5004902460    
0.3749999840    0.9761883230    0.5010696030    
0.4583333170    0.9761883230    0.5016025470    
0.5416667140    0.9761883230    0.5016025470    
0.6250000160    0.9761883230    0.5010696030    
0.7083333810    0.9761883230    0.5004902460    
0.7916666830    0.9761883230    0.5001621010    
0.8749999840    0.9761883230    0.5000409490    
0.9583333490    0.9761883230    0.5000083450    
0.0000000000    0.0476171870    0.5000155310    
0.0833333330    0.0476171870    0.5000956040    
0.1666666670    0.0476171870    0.5004903490    
0.2500000000    0.0476171870    0.5019694520    
0.3333333330    0.0476171870    0.5057372220    
0.4166666670    0.0476171870    0.5112415240    
0.5000000000    0.0476171870    0.5141291520    
0.5833333020    0.0476171870    0.5112415260    
0.6666666670    0.0476171870    0.5057372220    
0.7499999680    0.0476171870    0.5019694530    
0.8333333330    0.0476171870    0.5004903490    
0.9166666980    0.0476171870    0.5000956040    
0.0000000000    0.1904743270    0.5001940950    
0.0833333330    0.1904743270    0.5016034870    
0.1666666670    0.1904743270    0.5112460470    
0.2500000000    0.1904743270    0.5560424450    
0.3333333330    0.1904743270    0.6490883220    
0.4166666670    0.1904743270    0.7179066480    
0.5000000000    0.1904743270    0.7372998360    
0.5833333020    0.1904743270    0.7179066640    
0.6666666670    0.1904743270    0.6490883220    
0.7499999680    0.1904743270    0.5560424740    
0.8333333330    0.1904743270    0.5112460470    
0.9166666980    0.1904743270    0.5016034860    
0.0000000000    0.3333314900    0.5010704420    
0.0833333330    0.3333314900    0.5112487650    
0.1666666670    0.3333314900    0.5860643720    
0.2500000000    0.3333314900    0.7373189010    
0.3321682130    0.3324592750    0.7960117430    
0.4157418420    0.3321887500    0.8195393440    
0.5000001250    0.3323744290    0.8246069320    
0.5842582060    0.3321886150    0.8195395770    
0.6678316140    0.3324590410    0.7960117120    
0.7499999680    0.3333314900    0.7373189430    
0.8333333330    0.3333314900    0.5860643720    
0.9166666980    0.3333314900    0.5112487560    
0.0000000000    0.4761886370    0.5019707520    
0.0833333330    0.4761886370    0.5224336220    
0.1666666670    0.4761886370    0.6491215500    
0.2500000000    0.4761886370    0.7772072050    
0.3318707710    0.4759320860    0.8196058060    
0.4160752810    0.4761861310    0.8378678410    
0.5839244930    0.4761858650    0.8378674830    
0.6681287930    0.4759315640    0.8196056260    
0.7499999680    0.4761886370    0.7772072250    
0.8333333330    0.4761886370    0.6491215500    
0.9166666980    0.4761886370    0.5224336030    
0.0000000000    0.6190457850    0.5010704420    
0.0833333330    0.6190457850    0.5112487650    
0.1666666670    0.6190457850    0.5860643720    
0.2500000000    0.6190457850    0.7373189010    
0.3328888030    0.6194901870    0.7936821890    
0.4161457780    0.6203811820    0.8195905080    
0.4999994000    0.6205792140    0.8264413620    
0.5838534360    0.6203809680    0.8195900680    
0.6671112920    0.6194902190    0.7936820840    
0.7499999680    0.6190457850    0.7373189420    
0.8333333330    0.6190457850    0.5860643720    
0.9166666980    0.6190457850    0.5112487560    
0.0000000000    0.7619029010    0.5001940950    
0.0833333330    0.7619029010    0.5016034890    
0.1666666670    0.7619029010    0.5112460570    
0.2500000000    0.7619029010    0.5560424940    
0.3333333330    0.7619029010    0.6490884120    
0.4166666670    0.7619029010    0.7179067280    
0.5000000000    0.7619029010    0.7372999050    
0.5833333020    0.7619029010    0.7179067440    
0.6666666670    0.7619029010    0.6490884120    
0.7499999680    0.7619029010    0.5560425220    
0.8333333330    0.7619029010    0.5112460570    
0.9166666980    0.7619029010    0.5016034870    
0.0000000000    0.9047600790    0.5000155310    
0.0833333330    0.9047600790    0.5000956040    
0.1666666670    0.9047600790    0.5004903490    
0.2500000000    0.9047600790    0.5019694530    
0.3333333330    0.9047600790    0.5057372240    
0.4166666670    0.9047600790    0.5112415260    
0.5000000000    0.9047600790    0.5141291550    
0.5833333020    0.9047600790    0.5112415280    
0.6666666670    0.9047600790    0.5057372240    
0.7499999680    0.9047600790    0.5019694540    
0.8333333330    0.9047600790    0.5004903490    
0.9166666980    0.9047600790    0.5000956040    
0.0416666670    0.0238114980    0.5000237560    
0.1250000000    0.0238114980    0.5001279650    
0.2083333490    0.0238114980    0.5005570540    
0.2916666510    0.0238114980    0.5018383240    
0.3749999840    0.0238114980    0.5042860470    
0.4583333170    0.0238114980    0.5066497280    
0.5416667140    0.0238114980    0.5066497270    
0.6250000160    0.0238114980    0.5042860470    
0.7083333810    0.0238114980    0.5018383240    
0.7916666830    0.0238114980    0.5005570530    
0.8749999840    0.0238114980    0.5001279650    
0.9583333490    0.0238114980    0.5000237560    
0.0416666670    0.1666686510    0.5003811880    
0.1250000000    0.1666686510    0.5027931350    
0.2083333490    0.1666686510    0.5164780340    
0.2916666510    0.1666686510    0.5648939520    
0.3749999840    0.1666686510    0.6413140600    
0.4583333170    0.1666686510    0.6884336430    
0.5416667140    0.1666686510    0.6884336340    
0.6250000160    0.1666686510    0.6413140600    
0.7083333810    0.1666686510    0.5648939250    
0.7916666830    0.1666686510    0.5164780240    
0.8749999840    0.1666686510    0.5027931360    
0.9583333490    0.1666686510    0.5003811880    
0.0416666670    0.3095257830    0.5027937360    
0.1250000000    0.3095257830    0.5261780910    
0.2083333490    0.3095257830    0.6413376450    
0.2916666510    0.3095257830    0.7628966080    
0.3736422490    0.3081212190    0.8047326900    
0.4578057870    0.3081264610    0.8167471680    
0.5421939530    0.3081264260    0.8167472560    
0.6263578780    0.3081212860    0.8047327120    
0.7083333810    0.3095257830    0.7628965840    
0.7916666830    0.3095257830    0.6413375830    
0.8749999840    0.3095257830    0.5261781020    
0.9583333490    0.3095257830    0.5027937350    
0.0416666670    0.4523829300    0.5066542400    
0.1250000000    0.4523829300    0.5649127070    
0.2083333490    0.4523829300    0.7311749310    
0.2897346640    0.4519440020    0.8047678980    
0.3730083040    0.4518790670    0.8310215110    
0.6269920960    0.4518794760    0.8310210910    
0.7102654200    0.4519443290    0.8047678010    
0.7916666830    0.4523829300    0.7311748800    
0.8749999840    0.4523829300    0.5649127310    
0.9583333490    0.4523829300    0.5066542370    
0.0416666670    0.5952401410    0.5042885160    
0.1250000000    0.5952401410    0.5414999220    
0.2083333490    0.5952401410    0.6884552220    
0.2916666510    0.5952401410    0.7825428380    
0.3740316760    0.5964037110    0.8167808210    
0.4577911840    0.5971859380    0.8310521060    
0.5422098860    0.5971861660    0.8310513710    
0.6259685040    0.5964039950    0.8167803670    
0.7083333810    0.5952401410    0.7825428240    
0.7916666830    0.5952401410    0.6884551600    
0.8749999840    0.5952401410    0.5414999380    
0.9583333490    0.5952401410    0.5042885140    
0.0416666670    0.7380972560    0.5008217670    
0.1250000000    0.7380972560    0.5066520200    
0.2083333490    0.7380972560    0.5414894880    
0.2916666510    0.7380972560    0.6413100220    
0.3749999840    0.7380972560    0.7311464570    
0.4583333170    0.7380972560    0.7628814800    
0.5416667140    0.7380972560    0.7628814760    
0.6250000160    0.7380972560    0.7311464570    
0.7083333810    0.7380972560    0.6413099770    
0.7916666830    0.7380972560    0.5414894620    
0.8749999840    0.7380972560    0.5066520230    
0.9583333490    0.7380972560    0.5008217670    
0.0416666670    0.8809543720    0.5000640570    
0.1250000000    0.8809543720    0.5003810460    
0.2083333490    0.8809543720    0.5018382280    
0.2916666510    0.8809543720    0.5066493480    
0.3749999840    0.8809543720    0.5164705030    
0.4583333170    0.8809543720    0.5261599210    
0.5416667140    0.8809543720    0.5261599190    
0.6250000160    0.8809543720    0.5164705030    
0.7083333810    0.8809543720    0.5066493450    
0.7916666830    0.8809543720    0.5018382270    
0.8749999840    0.8809543720    0.5003810460    
0.9583333490    0.8809543720    0.5000640570    
0.0000000000    0.0952401720    0.5000387650    
0.0833333330    0.0952401720    0.5002628920    
0.1666666670    0.0952401720    0.5014977540    
0.2500000000    0.0952401720    0.5066511490    
0.3333333330    0.0952401720    0.5207572940    
0.4166666670    0.0952401720    0.5414838980    
0.5000000000    0.0952401720    0.5520184590    
0.5833333020    0.0952401720    0.5414839050    
0.6666666670    0.0952401720    0.5207572940    
0.7499999680    0.0952401720    0.5066511530    
0.8333333330    0.0952401720    0.5014977540    
0.9166666980    0.0952401720    0.5002628920    
0.0000000000    0.2380973040    0.5003812310    
0.0833333330    0.2380973040    0.5034564510    
0.1666666670    0.2380973040    0.5261755820    
0.2500000000    0.2380973040    0.6188842300    
0.3333333330    0.2380973040    0.7311611770    
0.4166666670    0.2380973040    0.7741004350    
0.5000000000    0.2380973040    0.7825404930    
0.5833333020    0.2380973040    0.7741004420    
0.6666666670    0.2380973040    0.7311611770    
0.7499999680    0.2380973040    0.6188842790    
0.8333333330    0.2380973040    0.5261755820    
0.9166666980    0.2380973040    0.5034564480    
0.0000000000    0.3809544670    0.5014983730    
0.0833333330    0.3809544670    0.5164828280    
0.1666666670    0.3809544670    0.6188984940    
0.2500000000    0.3809544670    0.7628997590    
0.3314645390    0.3799006050    0.8114585730    
0.4152320920    0.3795292280    0.8309713720    
0.4999998890    0.3795355310    0.8359082800    
0.5847679060    0.3795293960    0.8309716550    
0.6685357390    0.3799009420    0.8114585520    
0.7499999680    0.3809544670    0.7628997890    
0.8333333330    0.3809544670    0.6188984940    
0.9166666980    0.3809544670    0.5164828140    
0.0000000000    0.5238115830    0.5018394410    
0.0833333330    0.5238115830    0.5207668070    
0.1666666670    0.5238115830    0.6413422510    
0.2500000000    0.5238115830    0.7741064260    
0.3318323800    0.5240703360    0.8168034950    
0.4154117300    0.5245351550    0.8360169660    
0.5845890170    0.5245358210    0.8360156120    
0.6681678470    0.5240707950    0.8168031470    
0.7499999680    0.5238115830    0.7741064480    
0.8333333330    0.5238115830    0.6413422510    
0.9166666980    0.5238115830    0.5207667900    
0.0000000000    0.6666687610    0.5006760040    
0.0833333330    0.6666687610    0.5066529600    
0.1666666670    0.6666687610    0.5520327370    
0.2500000000    0.6666687610    0.6884443620    
0.3333333330    0.6666687610    0.7740990640    
0.4160993690    0.6685535380    0.8047221650    
0.5000006300    0.6687959700    0.8114342700    
0.5839011940    0.6685532760    0.8047220850    
0.6666666670    0.6666687610    0.7740990640    
0.7499999680    0.6666687610    0.6884444160    
0.8333333330    0.6666687610    0.5520327370    
0.9166666980    0.6666687610    0.5066529550    
0.0000000000    0.8095258770    0.5000902540    
0.0833333330    0.8095258770    0.5006758130    
0.1666666670    0.8095258770    0.5042867260    
0.2500000000    0.8095258770    0.5207561760    
0.3333333330    0.8095258770    0.5648799080    
0.4166666670    0.8095258770    0.6188497320    
0.5000000000    0.8095258770    0.6412910100    
0.5833333020    0.8095258770    0.6188497480    
0.6666666670    0.8095258770    0.5648799080    
0.7499999680    0.8095258770    0.5207561870    
0.8333333330    0.8095258770    0.5042867260    
0.9166666980    0.8095258770    0.5006758120    
0.0000000000    0.9523830560    0.5000058580    
0.0833333330    0.9523830560    0.5000328700    
0.1666666670    0.9523830560    0.5001527370    
0.2500000000    0.9523830560    0.5005568990    
0.3333333330    0.9523830560    0.5014970210    
0.4166666670    0.9523830560    0.5027912640    
0.5000000000    0.9523830560    0.5034536610    
0.5833333020    0.9523830560    0.5027912640    
0.6666666670    0.9523830560    0.5014970210    
0.7499999680    0.9523830560    0.5005569000    
0.8333333330    0.9523830560    0.5001527370    
0.9166666980    0.9523830560    0.5000328700    
0.5000001430    0.5279205960    0.8434827120    
0.5453607270    0.4502920950    0.8433277440    
0.4546390300    0.4502922720    0.8433274870    
