POSCAR
1.00000
30.038784000    0.000000000    0.000000000
0.000000000    30.351862000    0.000000000
0.000000000    0.000000000    6.650000000
B	N	n	
335	333	3	
Direct
0.041666667 	 0.119045431 	 0.250274046 	 
0.125000000 	 0.119045431 	 0.251865841 	 
0.208333349 	 0.119045431 	 0.260050962 	 
0.291666651 	 0.119045431 	 0.289302457 	 
0.374999984 	 0.119045431 	 0.348231606 	 
0.458333317 	 0.119045431 	 0.400829132 	 
0.541666714 	 0.119045431 	 0.400829121 	 
0.625000016 	 0.119045431 	 0.348231606 	 
0.708333381 	 0.119045431 	 0.289302439 	 
0.791666683 	 0.119045431 	 0.260050957 	 
0.874999984 	 0.119045431 	 0.251865841 	 
0.958333349 	 0.119045431 	 0.250274046 	 
0.041666667 	 0.261902571 	 0.252801490 	 
0.125000000 	 0.261902571 	 0.274776017 	 
0.208333349 	 0.261902571 	 0.400873291 	 
0.291666651 	 0.261902571 	 0.632070159 	 
0.374999984 	 0.261902571 	 0.736008244 	 
0.458148085 	 0.261260496 	 0.764852717 	 
0.541851978 	 0.261260521 	 0.764852755 	 
0.625000016 	 0.261902571 	 0.736008244 	 
0.708333381 	 0.261902571 	 0.632070089 	 
0.791666683 	 0.261902571 	 0.400873208 	 
0.874999984 	 0.261902571 	 0.274776028 	 
0.958333349 	 0.261902571 	 0.252801489 	 
0.041666667 	 0.404759734 	 0.260055730 	 
0.125000000 	 0.404759734 	 0.348278529 	 
0.208333349 	 0.404759734 	 0.632096471 	 
0.290322414 	 0.404178062 	 0.769010612 	 
0.373619321 	 0.403956765 	 0.822274468 	 
0.458062901 	 0.404246698 	 0.842274774 	 
0.541937214 	 0.404246940 	 0.842274623 	 
0.626380484 	 0.403956485 	 0.822274515 	 
0.709677342 	 0.404177666 	 0.769010663 	 
0.791666683 	 0.404759734 	 0.632096373 	 
0.874999984 	 0.404759734 	 0.348278568 	 
0.958333349 	 0.404759734 	 0.260055724 	 
0.041666667 	 0.547616850 	 0.260055761 	 
0.125000000 	 0.547616850 	 0.348278847 	 
0.208333349 	 0.547616850 	 0.632096999 	 
0.291033423 	 0.547737371 	 0.764912326 	 
0.374181013 	 0.548060666 	 0.819264044 	 
0.458061514 	 0.548055367 	 0.842527285 	 
0.541937989 	 0.548055090 	 0.842526829 	 
0.625818171 	 0.548059911 	 0.819263174 	 
0.708966605 	 0.547737248 	 0.764912338 	 
0.791666683 	 0.547616850 	 0.632096901 	 
0.874999984 	 0.547616850 	 0.348278884 	 
0.958333349 	 0.547616850 	 0.260055756 	 
0.041666667 	 0.690474028 	 0.252801515 	 
0.125000000 	 0.690474028 	 0.274776259 	 
0.208333349 	 0.690474028 	 0.400874606 	 
0.291666651 	 0.690474028 	 0.632071704 	 
0.374999984 	 0.690474028 	 0.736008905 	 
0.458159837 	 0.691870228 	 0.769012317 	 
0.541839182 	 0.691870306 	 0.769012401 	 
0.625000016 	 0.690474028 	 0.736008905 	 
0.708333381 	 0.690474028 	 0.632071634 	 
0.791666683 	 0.690474028 	 0.400874522 	 
0.874999984 	 0.690474028 	 0.274776270 	 
0.958333349 	 0.690474028 	 0.252801513 	 
0.041666667 	 0.833331144 	 0.250274050 	 
0.125000000 	 0.833331144 	 0.251865869 	 
0.208333349 	 0.833331144 	 0.260051125 	 
0.291666651 	 0.833331144 	 0.289303125 	 
0.374999984 	 0.833331144 	 0.348233208 	 
0.458333317 	 0.833331144 	 0.400831401 	 
0.541666714 	 0.833331144 	 0.400831388 	 
0.625000016 	 0.833331144 	 0.348233208 	 
0.708333381 	 0.833331144 	 0.289303107 	 
0.791666683 	 0.833331144 	 0.260051120 	 
0.874999984 	 0.833331144 	 0.251865869 	 
0.958333349 	 0.833331144 	 0.250274050 	 
0.041666667 	 0.976188323 	 0.250004360 	 
0.125000000 	 0.976188323 	 0.250061526 	 
0.208333349 	 0.976188323 	 0.250273943 	 
0.291666651 	 0.976188323 	 0.250849284 	 
0.374999984 	 0.976188323 	 0.251865079 	 
0.458333317 	 0.976188323 	 0.252799497 	 
0.541666714 	 0.976188323 	 0.252799497 	 
0.625000016 	 0.976188323 	 0.251865079 	 
0.708333381 	 0.976188323 	 0.250849284 	 
0.791666683 	 0.976188323 	 0.250273943 	 
0.874999984 	 0.976188323 	 0.250061526 	 
0.958333349 	 0.976188323 	 0.250004360 	 
0.000000000 	 0.047617187 	 0.250016960 	 
0.083333333 	 0.047617187 	 0.250157353 	 
0.166666667 	 0.047617187 	 0.250849465 	 
0.250000000 	 0.047617187 	 0.253442796 	 
0.333333333 	 0.047617187 	 0.260048879 	 
0.416666667 	 0.047617187 	 0.269699648 	 
0.500000000 	 0.047617187 	 0.274762566 	 
0.583333302 	 0.047617187 	 0.269699651 	 
0.666666667 	 0.047617187 	 0.260048879 	 
0.749999968 	 0.047617187 	 0.253442798 	 
0.833333333 	 0.047617187 	 0.250849465 	 
0.916666698 	 0.047617187 	 0.250157353 	 
0.000000000 	 0.190474327 	 0.250330039 	 
0.083333333 	 0.190474327 	 0.252801145 	 
0.166666667 	 0.190474327 	 0.269707578 	 
0.250000000 	 0.190474327 	 0.348249719 	 
0.333333333 	 0.190474327 	 0.511388335 	 
0.416666667 	 0.190474327 	 0.632048453 	 
0.500000000 	 0.190474327 	 0.666050797 	 
0.583333302 	 0.190474327 	 0.632048481 	 
0.666666667 	 0.190474327 	 0.511388335 	 
0.749999968 	 0.190474327 	 0.348249770 	 
0.833333333 	 0.190474327 	 0.269707578 	 
0.916666698 	 0.190474327 	 0.252801143 	 
0.000000000 	 0.333331490 	 0.251866550 	 
0.083333333 	 0.333331490 	 0.269712344 	 
0.166666667 	 0.333331490 	 0.400887577 	 
0.250000000 	 0.333331490 	 0.666084224 	 
0.332168213 	 0.332459275 	 0.768991191 	 
0.415741842 	 0.332188750 	 0.810242458 	 
0.500000125 	 0.332374429 	 0.819127529 	 
0.584258206 	 0.332188615 	 0.810242866 	 
0.667831614 	 0.332459041 	 0.768991137 	 
0.749999968 	 0.333331490 	 0.666084297 	 
0.833333333 	 0.333331490 	 0.400887577 	 
0.916666698 	 0.333331490 	 0.269712328 	 
0.000000000 	 0.476188637 	 0.253445076 	 
0.083333333 	 0.476188637 	 0.289322907 	 
0.166666667 	 0.476188637 	 0.511446595 	 
0.250000000 	 0.476188637 	 0.736020936 	 
0.331870771 	 0.475932086 	 0.810358986 	 
0.416075281 	 0.476186131 	 0.842378064 	 
0.583924493 	 0.476185865 	 0.842377436 	 
0.668128793 	 0.475931564 	 0.810358671 	 
0.749999968 	 0.476188637 	 0.736020971 	 
0.833333333 	 0.476188637 	 0.511446595 	 
0.916666698 	 0.476188637 	 0.289322874 	 
0.000000000 	 0.619045785 	 0.251866550 	 
0.083333333 	 0.619045785 	 0.269712344 	 
0.166666667 	 0.619045785 	 0.400887577 	 
0.250000000 	 0.619045785 	 0.666084224 	 
0.332888803 	 0.619490187 	 0.764906752 	 
0.416145778 	 0.620381182 	 0.810332164 	 
0.499999400 	 0.620579214 	 0.822343861 	 
0.583853436 	 0.620380968 	 0.810331393 	 
0.667111292 	 0.619490219 	 0.764906568 	 
0.749999968 	 0.619045785 	 0.666084295 	 
0.833333333 	 0.619045785 	 0.400887577 	 
0.916666698 	 0.619045785 	 0.269712328 	 
0.000000000 	 0.761902901 	 0.250330039 	 
0.083333333 	 0.761902901 	 0.252801148 	 
0.166666667 	 0.761902901 	 0.269707596 	 
0.250000000 	 0.761902901 	 0.348249805 	 
0.333333333 	 0.761902901 	 0.511388493 	 
0.416666667 	 0.761902901 	 0.632048594 	 
0.500000000 	 0.761902901 	 0.666050918 	 
0.583333302 	 0.761902901 	 0.632048622 	 
0.666666667 	 0.761902901 	 0.511388493 	 
0.749999968 	 0.761902901 	 0.348249854 	 
0.833333333 	 0.761902901 	 0.269707596 	 
0.916666698 	 0.761902901 	 0.252801145 	 
0.000000000 	 0.904760079 	 0.250016960 	 
0.083333333 	 0.904760079 	 0.250157353 	 
0.166666667 	 0.904760079 	 0.250849465 	 
0.250000000 	 0.904760079 	 0.253442798 	 
0.333333333 	 0.904760079 	 0.260048883 	 
0.416666667 	 0.904760079 	 0.269699651 	 
0.500000000 	 0.904760079 	 0.274762571 	 
0.583333302 	 0.904760079 	 0.269699655 	 
0.666666667 	 0.904760079 	 0.260048883 	 
0.749999968 	 0.904760079 	 0.253442800 	 
0.833333333 	 0.904760079 	 0.250849465 	 
0.916666698 	 0.904760079 	 0.250157353 	 
0.041666667 	 0.119045431 	 0.750274046 	 0.0 0.0 0.0 
0.125000000 	 0.119045431 	 0.751865841 	 0.0 0.0 0.0 
0.208333349 	 0.119045431 	 0.760050962 	 0.0 0.0 0.0 
0.291666651 	 0.119045431 	 0.789302457 	 0.0 0.0 0.0 
0.374999984 	 0.119045431 	 0.848231606 	 0.0 0.0 0.0 
0.458333317 	 0.119045431 	 0.900829132 	 0.0 0.0 0.0 
0.541666714 	 0.119045431 	 0.900829121 	 0.0 0.0 0.0 
0.625000016 	 0.119045431 	 0.848231606 	 0.0 0.0 0.0 
0.708333381 	 0.119045431 	 0.789302439 	 0.0 0.0 0.0 
0.791666683 	 0.119045431 	 0.760050957 	 0.0 0.0 0.0 
0.874999984 	 0.119045431 	 0.751865841 	 0.0 0.0 0.0 
0.958333349 	 0.119045431 	 0.750274046 	 0.0 0.0 0.0 
0.041666667 	 0.261902571 	 0.752801490 	 0.0 0.0 0.0 
0.125000000 	 0.261902571 	 0.774776017 	 0.0 0.0 0.0 
0.208333349 	 0.261902571 	 0.900873291 	 0.0 0.0 0.0 
0.291666651 	 0.261902571 	 1.132070159 	 0.0 0.0 0.0 
0.374999984 	 0.261902571 	 1.236008244 	 0.0 0.0 0.0 
0.458333317 	 0.261902571 	 1.258920178 	 
0.541666714 	 0.261902571 	 1.258920176 	 
0.625000016 	 0.261902571 	 1.236008244 	 0.0 0.0 0.0 
0.708333381 	 0.261902571 	 1.132070089 	 0.0 0.0 0.0 
0.791666683 	 0.261902571 	 0.900873208 	 0.0 0.0 0.0 
0.874999984 	 0.261902571 	 0.774776028 	 0.0 0.0 0.0 
0.958333349 	 0.261902571 	 0.752801489 	 0.0 0.0 0.0 
0.041666667 	 0.404759734 	 0.760055730 	 0.0 0.0 0.0 
0.125000000 	 0.404759734 	 0.848278529 	 0.0 0.0 0.0 
0.208333349 	 0.404759734 	 1.132096471 	 0.0 0.0 0.0 
0.291666651 	 0.404759734 	 1.258925911 	 
0.374999984 	 0.404759734 	 1.274486615 	 
0.458333317 	 0.404759734 	 1.276013605 	 
0.541666714 	 0.404759734 	 1.276013605 	 
0.625000016 	 0.404759734 	 1.274486615 	 
0.708333381 	 0.404759734 	 1.258925895 	 
0.791666683 	 0.404759734 	 1.132096373 	 0.0 0.0 0.0 
0.874999984 	 0.404759734 	 0.848278568 	 0.0 0.0 0.0 
0.958333349 	 0.404759734 	 0.760055724 	 0.0 0.0 0.0 
0.041666667 	 0.547616850 	 0.760055761 	 0.0 0.0 0.0 
0.125000000 	 0.547616850 	 0.848278847 	 0.0 0.0 0.0 
0.208333349 	 0.547616850 	 1.132096999 	 0.0 0.0 0.0 
0.291666651 	 0.547616850 	 1.258926027 	 
0.374999984 	 0.547616850 	 1.274486634 	 
0.458333317 	 0.547616850 	 1.276013611 	 
0.541666714 	 0.547616850 	 1.276013611 	 
0.625000016 	 0.547616850 	 1.274486634 	 
0.708333381 	 0.547616850 	 1.258926011 	 
0.791666683 	 0.547616850 	 1.132096901 	 0.0 0.0 0.0 
0.874999984 	 0.547616850 	 0.848278884 	 0.0 0.0 0.0 
0.958333349 	 0.547616850 	 0.760055756 	 0.0 0.0 0.0 
0.041666667 	 0.690474028 	 0.752801515 	 0.0 0.0 0.0 
0.125000000 	 0.690474028 	 0.774776259 	 0.0 0.0 0.0 
0.208333349 	 0.690474028 	 0.900874606 	 0.0 0.0 0.0 
0.291666651 	 0.690474028 	 1.132071704 	 0.0 0.0 0.0 
0.374999984 	 0.690474028 	 1.236008905 	 0.0 0.0 0.0 
0.458333317 	 0.690474028 	 1.258920516 	 
0.541666714 	 0.690474028 	 1.258920514 	 
0.625000016 	 0.690474028 	 1.236008905 	 0.0 0.0 0.0 
0.708333381 	 0.690474028 	 1.132071634 	 0.0 0.0 0.0 
0.791666683 	 0.690474028 	 0.900874522 	 0.0 0.0 0.0 
0.874999984 	 0.690474028 	 0.774776270 	 0.0 0.0 0.0 
0.958333349 	 0.690474028 	 0.752801513 	 0.0 0.0 0.0 
0.041666667 	 0.833331144 	 0.750274050 	 0.0 0.0 0.0 
0.125000000 	 0.833331144 	 0.751865869 	 0.0 0.0 0.0 
0.208333349 	 0.833331144 	 0.760051125 	 0.0 0.0 0.0 
0.291666651 	 0.833331144 	 0.789303125 	 0.0 0.0 0.0 
0.374999984 	 0.833331144 	 0.848233208 	 0.0 0.0 0.0 
0.458333317 	 0.833331144 	 0.900831401 	 0.0 0.0 0.0 
0.541666714 	 0.833331144 	 0.900831388 	 0.0 0.0 0.0 
0.625000016 	 0.833331144 	 0.848233208 	 0.0 0.0 0.0 
0.708333381 	 0.833331144 	 0.789303107 	 0.0 0.0 0.0 
0.791666683 	 0.833331144 	 0.760051120 	 0.0 0.0 0.0 
0.874999984 	 0.833331144 	 0.751865869 	 0.0 0.0 0.0 
0.958333349 	 0.833331144 	 0.750274050 	 0.0 0.0 0.0 
0.041666667 	 0.976188323 	 0.750004360 	 0.0 0.0 0.0 
0.125000000 	 0.976188323 	 0.750061526 	 0.0 0.0 0.0 
0.208333349 	 0.976188323 	 0.750273943 	 0.0 0.0 0.0 
0.291666651 	 0.976188323 	 0.750849284 	 0.0 0.0 0.0 
0.374999984 	 0.976188323 	 0.751865079 	 0.0 0.0 0.0 
0.458333317 	 0.976188323 	 0.752799497 	 0.0 0.0 0.0 
0.541666714 	 0.976188323 	 0.752799497 	 0.0 0.0 0.0 
0.625000016 	 0.976188323 	 0.751865079 	 0.0 0.0 0.0 
0.708333381 	 0.976188323 	 0.750849284 	 0.0 0.0 0.0 
0.791666683 	 0.976188323 	 0.750273943 	 0.0 0.0 0.0 
0.874999984 	 0.976188323 	 0.750061526 	 0.0 0.0 0.0 
0.958333349 	 0.976188323 	 0.750004360 	 0.0 0.0 0.0 
0.000000000 	 0.047617187 	 0.750016960 	 0.0 0.0 0.0 
0.083333333 	 0.047617187 	 0.750157353 	 0.0 0.0 0.0 
0.166666667 	 0.047617187 	 0.750849465 	 0.0 0.0 0.0 
0.250000000 	 0.047617187 	 0.753442796 	 0.0 0.0 0.0 
0.333333333 	 0.047617187 	 0.760048879 	 0.0 0.0 0.0 
0.416666667 	 0.047617187 	 0.769699648 	 0.0 0.0 0.0 
0.500000000 	 0.047617187 	 0.774762566 	 0.0 0.0 0.0 
0.583333302 	 0.047617187 	 0.769699651 	 0.0 0.0 0.0 
0.666666667 	 0.047617187 	 0.760048879 	 0.0 0.0 0.0 
0.749999968 	 0.047617187 	 0.753442798 	 0.0 0.0 0.0 
0.833333333 	 0.047617187 	 0.750849465 	 0.0 0.0 0.0 
0.916666698 	 0.047617187 	 0.750157353 	 0.0 0.0 0.0 
0.000000000 	 0.190474327 	 0.750330039 	 0.0 0.0 0.0 
0.083333333 	 0.190474327 	 0.752801145 	 0.0 0.0 0.0 
0.166666667 	 0.190474327 	 0.769707578 	 0.0 0.0 0.0 
0.250000000 	 0.190474327 	 0.848249719 	 0.0 0.0 0.0 
0.333333333 	 0.190474327 	 1.011388335 	 0.0 0.0 0.0 
0.416666667 	 0.190474327 	 1.132048453 	 0.0 0.0 0.0 
0.500000000 	 0.190474327 	 1.166050797 	 0.0 0.0 0.0 
0.583333302 	 0.190474327 	 1.132048481 	 0.0 0.0 0.0 
0.666666667 	 0.190474327 	 1.011388335 	 0.0 0.0 0.0 
0.749999968 	 0.190474327 	 0.848249770 	 0.0 0.0 0.0 
0.833333333 	 0.190474327 	 0.769707578 	 0.0 0.0 0.0 
0.916666698 	 0.190474327 	 0.752801143 	 0.0 0.0 0.0 
0.000000000 	 0.333331490 	 0.751866550 	 0.0 0.0 0.0 
0.083333333 	 0.333331490 	 0.769712344 	 0.0 0.0 0.0 
0.166666667 	 0.333331490 	 0.900887577 	 0.0 0.0 0.0 
0.250000000 	 0.333331490 	 1.166084224 	 0.0 0.0 0.0 
0.333333333 	 0.333331490 	 1.258923865 	 
0.416666667 	 0.333331490 	 1.272759495 	 
0.500000000 	 0.333331490 	 1.274486278 	 
0.583333302 	 0.333331490 	 1.272759497 	 
0.666666667 	 0.333331490 	 1.258923865 	 
0.749999968 	 0.333331490 	 1.166084297 	 0.0 0.0 0.0 
0.833333333 	 0.333331490 	 0.900887577 	 0.0 0.0 0.0 
0.916666698 	 0.333331490 	 0.769712328 	 0.0 0.0 0.0 
0.000000000 	 0.476188637 	 0.753445076 	 0.0 0.0 0.0 
0.083333333 	 0.476188637 	 0.789322907 	 0.0 0.0 0.0 
0.166666667 	 0.476188637 	 1.011446595 	 0.0 0.0 0.0 
0.250000000 	 0.476188637 	 1.236020936 	 0.0 0.0 0.0 
0.333333333 	 0.476188637 	 1.272760276 	 
0.416666667 	 0.476188637 	 1.276013640 	 
0.500000000 	 0.476188637 	 1.276281624 	 
0.583333302 	 0.476188637 	 1.276013640 	 
0.666666667 	 0.476188637 	 1.272760276 	 
0.749999968 	 0.476188637 	 1.236020971 	 0.0 0.0 0.0 
0.833333333 	 0.476188637 	 1.011446595 	 0.0 0.0 0.0 
0.916666698 	 0.476188637 	 0.789322874 	 0.0 0.0 0.0 
0.000000000 	 0.619045785 	 0.751866550 	 0.0 0.0 0.0 
0.083333333 	 0.619045785 	 0.769712344 	 0.0 0.0 0.0 
0.166666667 	 0.619045785 	 0.900887577 	 0.0 0.0 0.0 
0.250000000 	 0.619045785 	 1.166084224 	 0.0 0.0 0.0 
0.333333333 	 0.619045785 	 1.258923865 	 
0.416666667 	 0.619045785 	 1.272759495 	 
0.500000000 	 0.619045785 	 1.274486276 	 
0.583333302 	 0.619045785 	 1.272759497 	 
0.666666667 	 0.619045785 	 1.258923865 	 
0.749999968 	 0.619045785 	 1.166084295 	 0.0 0.0 0.0 
0.833333333 	 0.619045785 	 0.900887577 	 0.0 0.0 0.0 
0.916666698 	 0.619045785 	 0.769712328 	 0.0 0.0 0.0 
0.000000000 	 0.761902901 	 0.750330039 	 0.0 0.0 0.0 
0.083333333 	 0.761902901 	 0.752801148 	 0.0 0.0 0.0 
0.166666667 	 0.761902901 	 0.769707596 	 0.0 0.0 0.0 
0.250000000 	 0.761902901 	 0.848249805 	 0.0 0.0 0.0 
0.333333333 	 0.761902901 	 1.011388493 	 0.0 0.0 0.0 
0.416666667 	 0.761902901 	 1.132048594 	 0.0 0.0 0.0 
0.500000000 	 0.761902901 	 1.166050918 	 0.0 0.0 0.0 
0.583333302 	 0.761902901 	 1.132048622 	 0.0 0.0 0.0 
0.666666667 	 0.761902901 	 1.011388493 	 0.0 0.0 0.0 
0.749999968 	 0.761902901 	 0.848249854 	 0.0 0.0 0.0 
0.833333333 	 0.761902901 	 0.769707596 	 0.0 0.0 0.0 
0.916666698 	 0.761902901 	 0.752801145 	 0.0 0.0 0.0 
0.000000000 	 0.904760079 	 0.750016960 	 0.0 0.0 0.0 
0.083333333 	 0.904760079 	 0.750157353 	 0.0 0.0 0.0 
0.166666667 	 0.904760079 	 0.750849465 	 0.0 0.0 0.0 
0.250000000 	 0.904760079 	 0.753442798 	 0.0 0.0 0.0 
0.333333333 	 0.904760079 	 0.760048883 	 0.0 0.0 0.0 
0.416666667 	 0.904760079 	 0.769699651 	 0.0 0.0 0.0 
0.500000000 	 0.904760079 	 0.774762571 	 0.0 0.0 0.0 
0.583333302 	 0.904760079 	 0.769699655 	 0.0 0.0 0.0 
0.666666667 	 0.904760079 	 0.760048883 	 0.0 0.0 0.0 
0.749999968 	 0.904760079 	 0.753442800 	 0.0 0.0 0.0 
0.833333333 	 0.904760079 	 0.750849465 	 0.0 0.0 0.0 
0.916666698 	 0.904760079 	 0.750157353 	 0.0 0.0 0.0 
0.041666667 	 0.023811498 	 0.250031381 	 
0.125000000 	 0.023811498 	 0.250214092 	 
0.208333349 	 0.023811498 	 0.250966420 	 
0.291666651 	 0.023811498 	 0.253212888 	 
0.374999984 	 0.023811498 	 0.257504514 	 
0.458333317 	 0.023811498 	 0.261648789 	 
0.541666714 	 0.023811498 	 0.261648787 	 
0.625000016 	 0.023811498 	 0.257504514 	 
0.708333381 	 0.023811498 	 0.253212888 	 
0.791666683 	 0.023811498 	 0.250966418 	 
0.874999984 	 0.023811498 	 0.250214092 	 
0.958333349 	 0.023811498 	 0.250031381 	 
0.041666667 	 0.166668651 	 0.250658071 	 
0.125000000 	 0.166668651 	 0.254886971 	 
0.208333349 	 0.166668651 	 0.278880893 	 
0.291666651 	 0.166668651 	 0.363769188 	 
0.374999984 	 0.166668651 	 0.497757615 	 
0.458333317 	 0.166668651 	 0.580373028 	 
0.541666714 	 0.166668651 	 0.580373012 	 
0.625000016 	 0.166668651 	 0.497757615 	 
0.708333381 	 0.166668651 	 0.363769141 	 
0.791666683 	 0.166668651 	 0.278880875 	 
0.874999984 	 0.166668651 	 0.254886973 	 
0.958333349 	 0.166668651 	 0.250658071 	 
0.041666667 	 0.309525783 	 0.254888025 	 
0.125000000 	 0.309525783 	 0.295888136 	 
0.208333349 	 0.309525783 	 0.497798967 	 
0.291666651 	 0.309525783 	 0.710929969 	 
0.373642249 	 0.308121219 	 0.784281747 	 
0.457805787 	 0.308126461 	 0.805346897 	 
0.542193953 	 0.308126426 	 0.805347051 	 
0.626357878 	 0.308121286 	 0.784281786 	 
0.708333381 	 0.309525783 	 0.710929927 	 
0.791666683 	 0.309525783 	 0.497798858 	 
0.874999984 	 0.309525783 	 0.295888156 	 
0.958333349 	 0.309525783 	 0.254888023 	 
0.041666667 	 0.452382930 	 0.261656700 	 
0.125000000 	 0.452382930 	 0.363802071 	 
0.208333349 	 0.452382930 	 0.655311916 	 
0.289734664 	 0.451944002 	 0.784343478 	 
0.373008304 	 0.451879067 	 0.830374299 	 
0.626992096 	 0.451879476 	 0.830373563 	 
0.710265420 	 0.451944329 	 0.784343308 	 
0.791666683 	 0.452382930 	 0.655311827 	 
0.874999984 	 0.452382930 	 0.363802114 	 
0.958333349 	 0.452382930 	 0.261656694 	 
0.041666667 	 0.595240141 	 0.257508843 	 
0.125000000 	 0.595240141 	 0.322752113 	 
0.208333349 	 0.595240141 	 0.580410863 	 
0.291666651 	 0.595240141 	 0.745375975 	 
0.374031676 	 0.596403711 	 0.805405901 	 
0.457791184 	 0.597185938 	 0.830427942 	 
0.542209886 	 0.597186166 	 0.830426653 	 
0.625968504 	 0.596403995 	 0.805405105 	 
0.708333381 	 0.595240141 	 0.745375950 	 
0.791666683 	 0.595240141 	 0.580410754 	 
0.874999984 	 0.595240141 	 0.322752141 	 
0.958333349 	 0.595240141 	 0.257508840 	 
0.041666667 	 0.738097256 	 0.251430544 	 
0.125000000 	 0.738097256 	 0.261652807 	 
0.208333349 	 0.738097256 	 0.322733819 	 
0.291666651 	 0.738097256 	 0.497750535 	 
0.374999984 	 0.738097256 	 0.655261993 	 
0.458333317 	 0.738097256 	 0.710903445 	 
0.541666714 	 0.738097256 	 0.710903438 	 
0.625000016 	 0.738097256 	 0.655261993 	 
0.708333381 	 0.738097256 	 0.497750456 	 
0.791666683 	 0.738097256 	 0.322733774 	 
0.874999984 	 0.738097256 	 0.261652813 	 
0.958333349 	 0.738097256 	 0.251430544 	 
0.041666667 	 0.880954372 	 0.250102041 	 
0.125000000 	 0.880954372 	 0.250657822 	 
0.208333349 	 0.880954372 	 0.253212720 	 
0.291666651 	 0.880954372 	 0.261648122 	 
0.374999984 	 0.880954372 	 0.278867689 	 
0.458333317 	 0.880954372 	 0.295856279 	 
0.541666714 	 0.880954372 	 0.295856275 	 
0.625000016 	 0.880954372 	 0.278867689 	 
0.708333381 	 0.880954372 	 0.261648117 	 
0.791666683 	 0.880954372 	 0.253212718 	 
0.874999984 	 0.880954372 	 0.250657822 	 
0.958333349 	 0.880954372 	 0.250102041 	 
0.000000000 	 0.095240172 	 0.250057696 	 
0.083333333 	 0.095240172 	 0.250450661 	 
0.166666667 	 0.095240172 	 0.252615762 	 
0.250000000 	 0.095240172 	 0.261651280 	 
0.333333333 	 0.095240172 	 0.286383778 	 
0.416666667 	 0.095240172 	 0.322724018 	 
0.500000000 	 0.095240172 	 0.341194409 	 
0.583333302 	 0.095240172 	 0.322724031 	 
0.666666667 	 0.095240172 	 0.286383778 	 
0.749999968 	 0.095240172 	 0.261651287 	 
0.833333333 	 0.095240172 	 0.252615762 	 
0.916666698 	 0.095240172 	 0.250450661 	 
0.000000000 	 0.238097304 	 0.250658147 	 
0.083333333 	 0.238097304 	 0.256049972 	 
0.166666667 	 0.238097304 	 0.295883737 	 
0.250000000 	 0.238097304 	 0.458431085 	 
0.333333333 	 0.238097304 	 0.655287801 	 
0.416666667 	 0.238097304 	 0.730573793 	 
0.500000000 	 0.238097304 	 0.745371863 	 
0.583333302 	 0.238097304 	 0.730573806 	 
0.666666667 	 0.238097304 	 0.655287801 	 
0.749999968 	 0.238097304 	 0.458431171 	 
0.833333333 	 0.238097304 	 0.295883737 	 
0.916666698 	 0.238097304 	 0.256049967 	 
0.000000000 	 0.380954467 	 0.252616847 	 
0.083333333 	 0.380954467 	 0.278889298 	 
0.166666667 	 0.380954467 	 0.458456095 	 
0.250000000 	 0.380954467 	 0.710935494 	 
0.331464539 	 0.379900605 	 0.796074331 	 
0.415232092 	 0.379529228 	 0.830286390 	 
0.499999889 	 0.379535531 	 0.838942338 	 
0.584767906 	 0.379529396 	 0.830286886 	 
0.668535739 	 0.379900942 	 0.796074294 	 
0.749999968 	 0.380954467 	 0.710935546 	 
0.833333333 	 0.380954467 	 0.458456095 	 
0.916666698 	 0.380954467 	 0.278889274 	 
0.000000000 	 0.523811583 	 0.253214846 	 
0.083333333 	 0.523811583 	 0.286400458 	 
0.166666667 	 0.523811583 	 0.497807043 	 
0.250000000 	 0.523811583 	 0.730584297 	 
0.331832380 	 0.524070336 	 0.805445656 	 
0.415411730 	 0.524535155 	 0.839132899 	 
0.584589017 	 0.524535821 	 0.839130525 	 
0.668167847 	 0.524070795 	 0.805445046 	 
0.749999968 	 0.523811583 	 0.730584336 	 
0.833333333 	 0.523811583 	 0.497807043 	 
0.916666698 	 0.523811583 	 0.286400428 	 
0.000000000 	 0.666668761 	 0.251174976 	 
0.083333333 	 0.666668761 	 0.261654455 	 
0.166666667 	 0.666668761 	 0.341219443 	 
0.250000000 	 0.666668761 	 0.580391822 	 
0.333333333 	 0.666668761 	 0.730571389 	 
0.416099369 	 0.668553538 	 0.784263294 	 
0.500000630 	 0.668795970 	 0.796031720 	 
0.583901194 	 0.668553276 	 0.784263154 	 
0.666666667 	 0.666668761 	 0.730571389 	 
0.749999968 	 0.666668761 	 0.580391917 	 
0.833333333 	 0.666668761 	 0.341219443 	 
0.916666698 	 0.666668761 	 0.261654447 	 
0.000000000 	 0.809525877 	 0.250147973 	 
0.083333333 	 0.809525877 	 0.251174641 	 
0.166666667 	 0.809525877 	 0.257505705 	 
0.250000000 	 0.809525877 	 0.286381818 	 
0.333333333 	 0.809525877 	 0.363744564 	 
0.416666667 	 0.809525877 	 0.458370600 	 
0.500000000 	 0.809525877 	 0.497717201 	 
0.583333302 	 0.809525877 	 0.458370628 	 
0.666666667 	 0.809525877 	 0.363744564 	 
0.749999968 	 0.809525877 	 0.286381837 	 
0.833333333 	 0.809525877 	 0.257505705 	 
0.916666698 	 0.809525877 	 0.251174640 	 
0.000000000 	 0.952383056 	 0.250000000 	 
0.083333333 	 0.952383056 	 0.250047361 	 
0.166666667 	 0.952383056 	 0.250257525 	 
0.250000000 	 0.952383056 	 0.250966148 	 
0.333333333 	 0.952383056 	 0.252614477 	 
0.416666667 	 0.952383056 	 0.254883691 	 
0.500000000 	 0.952383056 	 0.256045080 	 
0.583333302 	 0.952383056 	 0.254883691 	 
0.666666667 	 0.952383056 	 0.252614477 	 
0.749999968 	 0.952383056 	 0.250966150 	 
0.833333333 	 0.952383056 	 0.250257525 	 
0.916666698 	 0.952383056 	 0.250047361 	 
0.041666667 	 0.023811498 	 0.750031381 	 0.0 0.0 0.0 
0.125000000 	 0.023811498 	 0.750214092 	 0.0 0.0 0.0 
0.208333349 	 0.023811498 	 0.750966420 	 0.0 0.0 0.0 
0.291666651 	 0.023811498 	 0.753212888 	 0.0 0.0 0.0 
0.374999984 	 0.023811498 	 0.757504514 	 0.0 0.0 0.0 
0.458333317 	 0.023811498 	 0.761648789 	 0.0 0.0 0.0 
0.541666714 	 0.023811498 	 0.761648787 	 0.0 0.0 0.0 
0.625000016 	 0.023811498 	 0.757504514 	 0.0 0.0 0.0 
0.708333381 	 0.023811498 	 0.753212888 	 0.0 0.0 0.0 
0.791666683 	 0.023811498 	 0.750966418 	 0.0 0.0 0.0 
0.874999984 	 0.023811498 	 0.750214092 	 0.0 0.0 0.0 
0.958333349 	 0.023811498 	 0.750031381 	 0.0 0.0 0.0 
0.041666667 	 0.166668651 	 0.750658071 	 0.0 0.0 0.0 
0.125000000 	 0.166668651 	 0.754886971 	 0.0 0.0 0.0 
0.208333349 	 0.166668651 	 0.778880893 	 0.0 0.0 0.0 
0.291666651 	 0.166668651 	 0.863769188 	 0.0 0.0 0.0 
0.374999984 	 0.166668651 	 0.997757615 	 0.0 0.0 0.0 
0.458333317 	 0.166668651 	 1.080373028 	 0.0 0.0 0.0 
0.541666714 	 0.166668651 	 1.080373012 	 0.0 0.0 0.0 
0.625000016 	 0.166668651 	 0.997757615 	 0.0 0.0 0.0 
0.708333381 	 0.166668651 	 0.863769141 	 0.0 0.0 0.0 
0.791666683 	 0.166668651 	 0.778880875 	 0.0 0.0 0.0 
0.874999984 	 0.166668651 	 0.754886973 	 0.0 0.0 0.0 
0.958333349 	 0.166668651 	 0.750658071 	 0.0 0.0 0.0 
0.041666667 	 0.309525783 	 0.754888025 	 0.0 0.0 0.0 
0.125000000 	 0.309525783 	 0.795888136 	 0.0 0.0 0.0 
0.208333349 	 0.309525783 	 0.997798967 	 0.0 0.0 0.0 
0.291666651 	 0.309525783 	 1.210929969 	 0.0 0.0 0.0 
0.374999984 	 0.309525783 	 1.263609454 	 
0.458333317 	 0.309525783 	 1.271962001 	 
0.541666714 	 0.309525783 	 1.271962001 	 
0.625000016 	 0.309525783 	 1.263609454 	 
0.708333381 	 0.309525783 	 1.210929927 	 0.0 0.0 0.0 
0.791666683 	 0.309525783 	 0.997798858 	 0.0 0.0 0.0 
0.874999984 	 0.309525783 	 0.795888156 	 0.0 0.0 0.0 
0.958333349 	 0.309525783 	 0.754888023 	 0.0 0.0 0.0 
0.041666667 	 0.452382930 	 0.761656700 	 0.0 0.0 0.0 
0.125000000 	 0.452382930 	 0.863802071 	 0.0 0.0 0.0 
0.208333349 	 0.452382930 	 1.155311916 	 0.0 0.0 0.0 
0.291666651 	 0.452382930 	 1.263611367 	 
0.374999984 	 0.452382930 	 1.275214008 	 
0.458333317 	 0.452382930 	 1.276204159 	 
0.541666714 	 0.452382930 	 1.276204159 	 
0.625000016 	 0.452382930 	 1.275214008 	 
0.708333381 	 0.452382930 	 1.263611355 	 
0.791666683 	 0.452382930 	 1.155311827 	 0.0 0.0 0.0 
0.874999984 	 0.452382930 	 0.863802114 	 0.0 0.0 0.0 
0.958333349 	 0.452382930 	 0.761656694 	 0.0 0.0 0.0 
0.041666667 	 0.595240141 	 0.757508843 	 0.0 0.0 0.0 
0.125000000 	 0.595240141 	 0.822752113 	 0.0 0.0 0.0 
0.208333349 	 0.595240141 	 1.080410863 	 0.0 0.0 0.0 
0.291666651 	 0.595240141 	 1.245375975 	 0.0 0.0 0.0 
0.374999984 	 0.595240141 	 1.271961774 	 
0.458333317 	 0.595240141 	 1.275213652 	 
0.541666714 	 0.595240141 	 1.275213652 	 
0.625000016 	 0.595240141 	 1.271961774 	 
0.708333381 	 0.595240141 	 1.245375950 	 0.0 0.0 0.0 
0.791666683 	 0.595240141 	 1.080410754 	 0.0 0.0 0.0 
0.874999984 	 0.595240141 	 0.822752141 	 0.0 0.0 0.0 
0.958333349 	 0.595240141 	 0.757508840 	 0.0 0.0 0.0 
0.041666667 	 0.738097256 	 0.751430544 	 0.0 0.0 0.0 
0.125000000 	 0.738097256 	 0.761652807 	 0.0 0.0 0.0 
0.208333349 	 0.738097256 	 0.822733819 	 0.0 0.0 0.0 
0.291666651 	 0.738097256 	 0.997750535 	 0.0 0.0 0.0 
0.374999984 	 0.738097256 	 1.155261993 	 0.0 0.0 0.0 
0.458333317 	 0.738097256 	 1.210903445 	 0.0 0.0 0.0 
0.541666714 	 0.738097256 	 1.210903438 	 0.0 0.0 0.0 
0.625000016 	 0.738097256 	 1.155261993 	 0.0 0.0 0.0 
0.708333381 	 0.738097256 	 0.997750456 	 0.0 0.0 0.0 
0.791666683 	 0.738097256 	 0.822733774 	 0.0 0.0 0.0 
0.874999984 	 0.738097256 	 0.761652813 	 0.0 0.0 0.0 
0.958333349 	 0.738097256 	 0.751430544 	 0.0 0.0 0.0 
0.041666667 	 0.880954372 	 0.750102041 	 0.0 0.0 0.0 
0.125000000 	 0.880954372 	 0.750657822 	 0.0 0.0 0.0 
0.208333349 	 0.880954372 	 0.753212720 	 0.0 0.0 0.0 
0.291666651 	 0.880954372 	 0.761648122 	 0.0 0.0 0.0 
0.374999984 	 0.880954372 	 0.778867689 	 0.0 0.0 0.0 
0.458333317 	 0.880954372 	 0.795856279 	 0.0 0.0 0.0 
0.541666714 	 0.880954372 	 0.795856275 	 0.0 0.0 0.0 
0.625000016 	 0.880954372 	 0.778867689 	 0.0 0.0 0.0 
0.708333381 	 0.880954372 	 0.761648117 	 0.0 0.0 0.0 
0.791666683 	 0.880954372 	 0.753212718 	 0.0 0.0 0.0 
0.874999984 	 0.880954372 	 0.750657822 	 0.0 0.0 0.0 
0.958333349 	 0.880954372 	 0.750102041 	 0.0 0.0 0.0 
0.000000000 	 0.095240172 	 0.750057696 	 0.0 0.0 0.0 
0.083333333 	 0.095240172 	 0.750450661 	 0.0 0.0 0.0 
0.166666667 	 0.095240172 	 0.752615762 	 0.0 0.0 0.0 
0.250000000 	 0.095240172 	 0.761651280 	 0.0 0.0 0.0 
0.333333333 	 0.095240172 	 0.786383778 	 0.0 0.0 0.0 
0.416666667 	 0.095240172 	 0.822724018 	 0.0 0.0 0.0 
0.500000000 	 0.095240172 	 0.841194409 	 0.0 0.0 0.0 
0.583333302 	 0.095240172 	 0.822724031 	 0.0 0.0 0.0 
0.666666667 	 0.095240172 	 0.786383778 	 0.0 0.0 0.0 
0.749999968 	 0.095240172 	 0.761651287 	 0.0 0.0 0.0 
0.833333333 	 0.095240172 	 0.752615762 	 0.0 0.0 0.0 
0.916666698 	 0.095240172 	 0.750450661 	 0.0 0.0 0.0 
0.000000000 	 0.238097304 	 0.750658147 	 0.0 0.0 0.0 
0.083333333 	 0.238097304 	 0.756049972 	 0.0 0.0 0.0 
0.166666667 	 0.238097304 	 0.795883737 	 0.0 0.0 0.0 
0.250000000 	 0.238097304 	 0.958431085 	 0.0 0.0 0.0 
0.333333333 	 0.238097304 	 1.155287801 	 0.0 0.0 0.0 
0.416666667 	 0.238097304 	 1.230573793 	 0.0 0.0 0.0 
0.500000000 	 0.238097304 	 1.245371863 	 0.0 0.0 0.0 
0.583333302 	 0.238097304 	 1.230573806 	 0.0 0.0 0.0 
0.666666667 	 0.238097304 	 1.155287801 	 0.0 0.0 0.0 
0.749999968 	 0.238097304 	 0.958431171 	 0.0 0.0 0.0 
0.833333333 	 0.238097304 	 0.795883737 	 0.0 0.0 0.0 
0.916666698 	 0.238097304 	 0.756049967 	 0.0 0.0 0.0 
0.000000000 	 0.380954467 	 0.752616847 	 0.0 0.0 0.0 
0.083333333 	 0.380954467 	 0.778889298 	 0.0 0.0 0.0 
0.166666667 	 0.380954467 	 0.958456095 	 0.0 0.0 0.0 
0.250000000 	 0.380954467 	 1.210935494 	 0.0 0.0 0.0 
0.333333333 	 0.380954467 	 1.268673994 	 
0.416666667 	 0.380954467 	 1.275213951 	 
0.500000000 	 0.380954467 	 1.275875695 	 
0.583333302 	 0.380954467 	 1.275213952 	 
0.666666667 	 0.380954467 	 1.268673994 	 
0.749999968 	 0.380954467 	 1.210935546 	 0.0 0.0 0.0 
0.833333333 	 0.380954467 	 0.958456095 	 0.0 0.0 0.0 
0.916666698 	 0.380954467 	 0.778889274 	 0.0 0.0 0.0 
0.000000000 	 0.523811583 	 0.753214846 	 0.0 0.0 0.0 
0.083333333 	 0.523811583 	 0.786400458 	 0.0 0.0 0.0 
0.166666667 	 0.523811583 	 0.997807043 	 0.0 0.0 0.0 
0.250000000 	 0.523811583 	 1.230584297 	 0.0 0.0 0.0 
0.333333333 	 0.523811583 	 1.271962520 	 
0.416666667 	 0.523811583 	 1.275875672 	 